     Program PWSCF v.6.6 starts on 10Oct2022 at 16:38:50

     R & G space division:  proc/nbgrp/npool/nimage =      64
     Fft bands division:     nmany     =       1
     Waiting for input...
     Reading input from standard input
Warning: card  &CELL ignored
Warning: card     CELL_DYNAMICS = 'BFGS', ignored
Warning: card     PRESS=0.0, ignored
Warning: card / ignored

     Current dimensions of program PWSCF are:
     Max number of different atomic species (ntypx) = 10
     Max number of k-points (npk) =  40000
     Max angular momentum in pseudopotentials (lmaxx) =  3

     IMPORTANT: XC functional enforced from input :
     Exchange-correlation= PBE
                           (   1   4   3   4   0   0   0)
     Any further DFT definition will be discarded
     Please, verify this is what you really want

     Found symmetry operation: I + (  0.1667 -0.2500 -0.0000)
     This is a supercell, fractional translations are disabled
     Message from routine setup:
     using ibrav=0 with symmetry is DISCOURAGED, use correct ibrav instead

     bravais-lattice index     =            0
     lattice parameter (alat)  =      23.9481  a.u.
     unit-cell volume          =   19507.9910 (a.u.)^3
     number of atoms/cell      =           48
     number of atomic types    =            2
     number of electrons       =       840.00
     number of Kohn-Sham states=          504
     kinetic-energy cutoff     =      60.0000  Ry
     charge density cutoff     =     650.0000  Ry
     convergence threshold     =      1.0E-10
     mixing beta               =       0.3000
     number of iterations used =            8  plain     mixing
     Exchange-correlation= PBE
                           (   1   4   3   4   0   0   0)
     nstep                     =           50

     celldm(1)=  23.948060  celldm(2)=   0.000000  celldm(3)=   0.000000
     celldm(4)=   0.000000  celldm(5)=   0.000000  celldm(6)=   0.000000

     crystal axes: (cart. coord. in units of alat)
               a(1) = (   1.000000   0.000000   0.000000 )
               a(2) = (   0.000000   0.666667   0.000000 )
               a(3) = (   0.000000   0.000000   2.130553 )

     reciprocal axes: (cart. coord. in units 2 pi/alat)
               b(1) = (  1.000000  0.000000  0.000000 )
               b(2) = (  0.000000  1.499998  0.000000 )
               b(3) = (  0.000000  0.000000  0.469362 )

     PseudoPot. # 1 for Cu read from file:
     ./pseudo-gbrv-pbe/cu_pbe_v1.2.uspp.F.UPF
     MD5 check sum: 6e991ff952a84172a2a52a1c1e996048
     Pseudo is Ultrasoft + core correction, Zval = 19.0
     Generated by new atomic code, or converted to UPF format
     Using radial grid of  867 points,  6 beta functions with:
                l(1) =   0
                l(2) =   0
                l(3) =   1
                l(4) =   1
                l(5) =   2
                l(6) =   2
     Q(r) pseudized with  8 coefficients,  rinner =    1.150   1.150   1.150
                                                       1.150   1.150

     PseudoPot. # 2 for Pd read from file:
     ./pseudo-gbrv-pbe/pd_pbe_v1.4.uspp.F.UPF
     MD5 check sum: 2d733d2bc2cbfd217af676df1668a4bc
     Pseudo is Ultrasoft + core correction, Zval = 16.0
     Generated by new atomic code, or converted to UPF format
     Using radial grid of  887 points,  6 beta functions with:
                l(1) =   0
                l(2) =   0
                l(3) =   1
                l(4) =   1
                l(5) =   2
                l(6) =   2
     Q(r) pseudized with  8 coefficients,  rinner =    1.130   1.130   1.130
                                                       1.130   1.130

     atomic species   valence    mass     pseudopotential
        Cu            19.00    63.54600     Cu( 1.00)
        Pd            16.00   106.42000     Pd( 1.00)

      4 Sym. Ops. (no inversion) found

   Cartesian axes

     site n.     atom                  positions (alat units)
         1           Pd  tau(   1) = (   0.0000000   0.1666665   0.0413789  )
         2           Pd  tau(   2) = (   0.1666666   0.0000000   0.0413787  )
         3           Pd  tau(   3) = (   0.0000000   0.5000001   0.0413789  )
         4           Pd  tau(   4) = (   0.1666663   0.3333332   0.0413792  )
         5           Pd  tau(   5) = (   0.3333330   0.1666664   0.0413790  )
         6           Pd  tau(   6) = (   0.4999999   0.0000000   0.0413798  )
         7           Pd  tau(   7) = (   0.3333330   0.5000002   0.0413790  )
         8           Pd  tau(   8) = (   0.4999999   0.3333332   0.0413781  )
         9           Pd  tau(   9) = (   0.6666666   0.1666664   0.0413790  )
        10           Pd  tau(  10) = (   0.8333328   0.0000000   0.0413787  )
        11           Pd  tau(  11) = (   0.6666666   0.5000002   0.0413790  )
        12           Pd  tau(  12) = (   0.8333335   0.3333332   0.0413792  )
        13           Cu  tau(  13) = (   0.0000000   0.0000000   0.1620901  )
        14           Cu  tau(  14) = (   0.1666663   0.1666663   0.1620904  )
        15           Pd  tau(  15) = (   0.0000000   0.1666663   0.2805274  )
        16           Pd  tau(  16) = (   0.1666662   0.0000000   0.2805270  )
        17           Cu  tau(  17) = (   0.0000000   0.3333332   0.1620907  )
        18           Cu  tau(  18) = (   0.1666663   0.5000002   0.1620904  )
        19           Pd  tau(  19) = (   0.0000000   0.5000003   0.2805274  )
        20           Pd  tau(  20) = (   0.1666668   0.3333332   0.2805269  )
        21           Cu  tau(  21) = (   0.3333332   0.0000000   0.1620907  )
        22           Cu  tau(  22) = (   0.4999999   0.1666666   0.1620902  )
        23           Pd  tau(  23) = (   0.3333329   0.1666668   0.2805266  )
        24           Pd  tau(  24) = (   0.4999999   0.0000000   0.2805269  )
        25           Cu  tau(  25) = (   0.3333336   0.3333332   0.1620898  )
        26           Cu  tau(  26) = (   0.4999999   0.5000000   0.1620902  )
        27           Pd  tau(  27) = (   0.3333329   0.4999998   0.2805266  )
        28           Pd  tau(  28) = (   0.4999999   0.3333332   0.2805265  )
        29           Cu  tau(  29) = (   0.6666664   0.0000000   0.1620907  )
        30           Cu  tau(  30) = (   0.8333335   0.1666663   0.1620904  )
        31           Pd  tau(  31) = (   0.6666667   0.1666668   0.2805266  )
        32           Pd  tau(  32) = (   0.8333332   0.0000000   0.2805270  )
        33           Cu  tau(  33) = (   0.6666661   0.3333332   0.1620898  )
        34           Cu  tau(  34) = (   0.8333335   0.5000002   0.1620904  )
        35           Pd  tau(  35) = (   0.6666667   0.4999998   0.2805266  )
        36           Pd  tau(  36) = (   0.8333330   0.3333332   0.2805269  )
        37           Cu  tau(  37) = (   0.0000000   0.0000000   0.4012378  )
        38           Cu  tau(  38) = (   0.1666667   0.1666666   0.4012378  )
        39           Cu  tau(  39) = (   0.0000000   0.3333332   0.4012378  )
        40           Cu  tau(  40) = (   0.1666667   0.5000000   0.4012378  )
        41           Cu  tau(  41) = (   0.3333339   0.0000000   0.4012378  )
        42           Cu  tau(  42) = (   0.4999999   0.1666655   0.4012378  )
        43           Cu  tau(  43) = (   0.3333328   0.3333332   0.4012378  )
        44           Cu  tau(  44) = (   0.4999999   0.5000010   0.4012378  )
        45           Cu  tau(  45) = (   0.6666657   0.0000000   0.4012378  )
        46           Cu  tau(  46) = (   0.8333331   0.1666666   0.4012378  )
        47           Cu  tau(  47) = (   0.6666669   0.3333332   0.4012378  )
        48           Cu  tau(  48) = (   0.8333331   0.5000000   0.4012378  )

     number of k points=     9  Methfessel-Paxton smearing, width (Ry)=  0.0200
                       cart. coord. in units 2pi/alat
        k(    1) = (   0.0000000   0.0000000   0.0000000), wk =   0.1250000
        k(    2) = (   0.0000000   0.3749996   0.0000000), wk =   0.2500000
        k(    3) = (   0.0000000  -0.7499991   0.0000000), wk =   0.1250000
        k(    4) = (   0.2500000   0.0000000   0.0000000), wk =   0.2500000
        k(    5) = (   0.2500000   0.3749996   0.0000000), wk =   0.5000000
        k(    6) = (   0.2500000  -0.7499991   0.0000000), wk =   0.2500000
        k(    7) = (  -0.5000000   0.0000000   0.0000000), wk =   0.1250000
        k(    8) = (  -0.5000000   0.3749996   0.0000000), wk =   0.2500000
        k(    9) = (  -0.5000000  -0.7499991   0.0000000), wk =   0.1250000

     Initial potential from superposition of free atoms

     starting charge  803.99979, renormalised to  840.00000

     negative rho (up, down):  1.910E+00 0.000E+00
     Starting wfcs are  600 randomized atomic wfcs

     Self-consistent Calculation

     iteration #  1     ecut=    60.00 Ry     beta= 0.30
     Davidson diagonalization with overlap
     ethr =  1.00E-02,  avg # of iterations =  9.2

     negative rho (up, down):  1.840E+00 0.000E+00

     total energy              =  -13517.01362291 Ry
     estimated scf accuracy    <    2012.58424171 Ry

[...]

     iteration # 19     ecut=    60.00 Ry     beta= 0.30
     Davidson diagonalization with overlap
     c_bands:  2 eigenvalues not converged
     ethr =  1.98E-04,  avg # of iterations = 17.4

[...]

     End of self-consistent calculation

          k = 0.0000 0.0000 0.0000 (153173 PWs)   bands (ev):

  -111.3835-111.3833-111.3830-111.3827-111.3826-111.3826-111.3826-111.3825
  -111.3825-111.3821-111.3819-111.3816-110.9510-110.9508-110.9506-110.9503
  -110.9503-110.9502-110.9502-110.9502-110.9501-110.9498-110.9497-110.9495
   -68.7829 -68.7827 -68.7825 -68.7823 -68.7822 -68.7822 -68.7821 -68.7821
   -68.7820 -68.7820 -68.7820 -68.7819 -68.7819 -68.7819 -68.7818 -68.7814
   -68.7811 -68.7809 -68.7803 -68.7802 -68.7800 -68.7799 -68.7784 -68.7784
   -68.7781 -68.7781 -68.7766 -68.7764 -68.7763 -68.7762 -68.7745 -68.7744
   -68.7744 -68.7743 -68.7742 -68.7742 -68.3883 -68.3881 -68.3880 -68.3879
   -68.3879 -68.3875 -68.3864 -68.3863 -68.3856 -68.3855 -68.3845 -68.3845
   -68.3837 -68.3837 -68.3827 -68.3826 -68.3819 -68.3818 -68.3807 -68.3803
   -68.3803 -68.3802 -68.3802 -68.3799 -68.3232 -68.3230 -68.3228 -68.3224
   -68.3224 -68.3223 -68.3223 -68.3223 -68.3222 -68.3219 -68.3217 -68.3215
   -49.3492 -49.3492 -49.3491 -49.3491 -49.3474 -49.3461 -49.3273 -49.3272
   -49.3268 -49.3267 -49.3147 -49.3106 -49.3105 -49.3082 -49.3082 -49.3066
   -49.3064 -49.3063 -49.3062 -49.3062 -49.3060 -49.3058 -49.3058 -49.3024
   -49.3023 -49.2986 -49.2870 -49.2869 -49.2865 -49.2864 -49.2667 -49.2655
   -49.2654 -49.2654 -49.2653 -49.2653 -48.7999 -48.7999 -48.7997 -48.7997
   -48.7984 -48.7969 -48.7792 -48.7791 -48.7770 -48.7769 -48.7584 -48.7584
   -48.7578 -48.7578 -48.7390 -48.7390 -48.7368 -48.7368 -48.7182 -48.7169
   -48.7169 -48.7168 -48.7168 -48.7167 -48.6326 -48.6287 -48.6286 -48.6248
   -48.6247 -48.6246 -48.6246 -48.6245 -48.6244 -48.6208 -48.6207 -48.6170
    -6.5371  -5.5714  -5.5712  -4.6155  -4.6153  -4.4873  -4.3458  -4.3225
    -4.3224  -4.3223  -4.3223  -4.0639  -4.0639  -3.9045  -3.9044  -3.8665
    -3.8665  -3.8664  -3.8663  -3.7854  -3.5752  -3.4960  -3.4958  -3.3927
[...]
    -1.0288  -1.0287  -1.0286  -1.0286  -0.9978  -0.9978  -0.9977  -0.9977
    -0.9836  -0.9834  -0.9834  -0.9833  -0.9494  -0.9493  -0.9493  -0.9493
    -0.9112  -0.9112  -0.9112  -0.9112  -0.8900  -0.8900  -0.8900  -0.8900
    -0.7998  -0.7998  -0.7997  -0.7997  -0.7810  -0.7809  -0.7807  -0.7807
    -0.7473  -0.7472  -0.7472  -0.7472  -0.6834  -0.6833  -0.6832  -0.6832
    -0.6677  -0.6676  -0.6673  -0.6672  -0.6172  -0.6172  -0.6171  -0.6171
    -0.5878  -0.5878  -0.5877  -0.5876  -0.5552  -0.5552  -0.5550  -0.5550
    -0.5267  -0.5267  -0.5266  -0.5266  -0.5100  -0.5099  -0.5098  -0.5097
    -0.4371  -0.4371  -0.4370  -0.4370  -0.3441  -0.3441  -0.3437  -0.3437
    -0.2844  -0.2844  -0.2841  -0.2841  -0.2473  -0.2471  -0.2471  -0.2469
    -0.1165  -0.1165  -0.1165  -0.1164  -0.0431  -0.0430  -0.0427  -0.0426
    -0.0314  -0.0314  -0.0314  -0.0313   0.0437   0.0437   0.0437   0.0437
     0.1202   0.1203   0.1205   0.1205   0.6728   0.6729   0.6733   0.6734
     1.0127   1.0128   1.0130   1.0132   1.1767   1.1768   1.1770   1.1771
     2.6374   2.6375   2.6378   2.6379   2.6554   2.6555   2.6559   2.6559
     3.1715   3.1716   3.1718   3.1719   3.3052   3.3054   3.3055   3.3056
     3.3532   3.3533   3.3535   3.3536   4.5627   4.5628   4.5633   4.5634
     4.6062   4.6062   4.6062   4.6063   5.1292   5.1292   5.1293   5.1293
     5.2936   5.2937   5.2938   5.2938   5.4475   5.4475   5.4475   5.4475
     5.5562   5.5562   5.5563   5.5563   5.6039   5.6039   5.6040   5.6040
     6.5855   6.5855   6.5855   6.5856   6.6034   6.6035   6.6038   6.6038
     6.6229   6.6230   6.6230   6.6231   6.8009   6.8009   6.8010   6.8010
     7.0163   7.0163   7.0164   7.0164   7.3580   7.3580   7.3581   7.3581

     the Fermi energy is     0.2308 ev

!    total energy              =  -14458.51603513 Ry
     estimated scf accuracy    <          3.1E-13 Ry
     smearing contrib. (-TS)   =       0.02366043 Ry
     internal energy E=F+TS    =  -14458.53969556 Ry

     The total energy is F=E-TS. E is the sum of the following terms:
     one-electron contribution = -128533.00067188 Ry
     hartree contribution      =   64373.45022747 Ry
     xc contribution           =   -1683.33871928 Ry
     ewald contribution        =   51384.34946813 Ry

     convergence has been achieved in  11 iterations

     negative rho (up, down):  1.881E+00 0.000E+00

     Forces acting on atoms (cartesian axes, Ry/au):

     atom    1 type  2   force =     0.00000000    0.00000015   -0.00000198
     atom    2 type  2   force =    -0.00000054    0.00000000   -0.00000168
     atom    3 type  2   force =     0.00000000   -0.00000015   -0.00000198
     atom    4 type  2   force =     0.00000085    0.00000000   -0.00000114
     atom    5 type  2   force =    -0.00000032    0.00000037   -0.00000083
     atom    6 type  2   force =     0.00000000    0.00000000   -0.00000238
     atom    7 type  2   force =    -0.00000032   -0.00000037   -0.00000083
     atom    8 type  2   force =     0.00000000    0.00000000    0.00000047
     atom    9 type  2   force =     0.00000032    0.00000037   -0.00000083
     atom   10 type  2   force =     0.00000054    0.00000000   -0.00000168
     atom   11 type  2   force =     0.00000032   -0.00000037   -0.00000083
     atom   12 type  2   force =    -0.00000085    0.00000000   -0.00000114
     atom   13 type  1   force =     0.00000000    0.00000000   -0.00000006
     atom   14 type  1   force =     0.00000160    0.00000011    0.00000031
     atom   15 type  2   force =     0.00000000   -0.00000007    0.00000571
     atom   16 type  2   force =     0.00000059    0.00000000    0.00000590
     atom   17 type  1   force =     0.00000000    0.00000000   -0.00000013
     atom   18 type  1   force =     0.00000160   -0.00000011    0.00000031
     atom   19 type  2   force =     0.00000000    0.00000007    0.00000571
     atom   20 type  2   force =     0.00000045    0.00000000    0.00000581
     atom   21 type  1   force =     0.00000015    0.00000000   -0.00000010
     atom   22 type  1   force =     0.00000000    0.00000124    0.00000063
     atom   23 type  2   force =     0.00000006    0.00000036    0.00000589
     atom   24 type  2   force =     0.00000000    0.00000000    0.00000604
     atom   25 type  1   force =     0.00000085    0.00000000   -0.00000031
     atom   26 type  1   force =     0.00000000   -0.00000124    0.00000063
     atom   27 type  2   force =     0.00000006   -0.00000036    0.00000589
     atom   28 type  2   force =     0.00000000    0.00000000    0.00000553
     atom   29 type  1   force =    -0.00000015    0.00000000   -0.00000010
     atom   30 type  1   force =    -0.00000160    0.00000011    0.00000031
     atom   31 type  2   force =    -0.00000006    0.00000036    0.00000589
     atom   32 type  2   force =    -0.00000059    0.00000000    0.00000590
     atom   33 type  1   force =    -0.00000085    0.00000000   -0.00000031
     atom   34 type  1   force =    -0.00000160   -0.00000011    0.00000031
     atom   35 type  2   force =    -0.00000006   -0.00000036    0.00000589
     atom   36 type  2   force =    -0.00000045    0.00000000    0.00000581
     atom   37 type  1   force =     0.00000000    0.00000000   -0.00000539
     atom   38 type  1   force =     0.00000083    0.00000016   -0.00000451
     atom   39 type  1   force =     0.00000000    0.00000000   -0.00000445
     atom   40 type  1   force =     0.00000083   -0.00000016   -0.00000451
     atom   41 type  1   force =     0.00000047    0.00000000   -0.00000427
     atom   42 type  1   force =     0.00000000    0.00000061   -0.00000463
     atom   43 type  1   force =     0.00000040    0.00000000   -0.00000548
     atom   44 type  1   force =     0.00000000   -0.00000061   -0.00000463
     atom   45 type  1   force =    -0.00000047    0.00000000   -0.00000427
     atom   46 type  1   force =    -0.00000083    0.00000016   -0.00000451
     atom   47 type  1   force =    -0.00000040    0.00000000   -0.00000548
     atom   48 type  1   force =    -0.00000083   -0.00000016   -0.00000451

     Total force =     0.000026     Total SCF correction =     0.000003

     Computing stress (Cartesian axis) and pressure

     negative rho (up, down):  1.881E+00 0.000E+00
          total   stress  (Ry/bohr**3)                   (kbar)     P=       -8.15
  -0.00008162   0.00000000   0.00000000          -12.01        0.00        0.00
   0.00000000  -0.00008296   0.00000000            0.00      -12.20        0.00
   0.00000000   0.00000000  -0.00000156            0.00        0.00       -0.23

     Message from routine bfgs:
     history already reset at previous step: stopping

     bfgs converged in  19 scf cycles and  18 bfgs steps
     (criteria: energy <  1.0E-07 Ry, force <  1.0E-06 Ry/Bohr)

     End of BFGS Geometry Optimization

     Final energy   =  -14458.5160351296 Ry

     File /users/aafshar4/scratch/CuPd_rlx_1st_PBE.bfgs deleted, as requested
Begin final coordinates

ATOMIC_POSITIONS (angstrom)
Pd            0.0000000000        2.1121257740        0.5243847780    0   0   0
Pd            2.1121268350        0.0000000000        0.5243830740    0   0   0
Pd            0.0000000000        6.3363845850        0.5243847780    0   0   0
Pd            2.1121234310        4.2242543590        0.5243889670    0   0   0
Pd            4.2242518740        2.1121241690        0.5243862400    0   0   0
Pd            6.3363823590        0.0000000000        0.5243967900    0   0   0
Pd            4.2242518740        6.3363861900        0.5243862400    0   0   0
Pd            6.3363823590        4.2242543590        0.5243751060    0   0   0
Pd            8.4485112030        2.1121241690        0.5243862400    0   0   0
Pd           10.5606328710        0.0000000000        0.5243830740    0   0   0
Pd            8.4485112030        6.3363861900        0.5243862400    0   0   0
Pd           10.5606412870        4.2242543590        0.5243889670    0   0   0
Cu            0.0000000000        0.0000000000        2.0252546026
Cu            2.1121182215        2.1121206167        2.0252583750
Pd            0.0000000000        2.1121236426        3.5549530620
Pd            2.1121164370        0.0000000000        3.5549537808
Cu            0.0000000000        4.2242543590        2.0252610569
Cu            2.1121182215        6.3363897423        2.0252583750
Pd            0.0000000000        6.3363867164        3.5549530620
Pd            2.1121241167        4.2242543590        3.5549480944
Cu            4.2242464833        0.0000000000        2.0252623363
Cu            6.3363823590        2.1121288970        2.0252574280
Pd            4.2242495136        2.1121267266        3.5549495349
Pd            6.3363823590        0.0000000000        3.5549394611
Cu            4.2242563388        4.2242543590        2.0252602689
Cu            6.3363823590        6.3363814620        2.0252574280
Pd            4.2242495136        6.3363836324        3.5549495349
Pd            6.3363823590        4.2242543590        3.5549601155
Cu            8.4485165937        0.0000000000        2.0252623363
Cu           10.5606464965        2.1121206167        2.0252583750
Pd            8.4485135634        2.1121267266        3.5549495349
Pd           10.5606432690        0.0000000000        3.5549537808
Cu            8.4485067382        4.2242543590        2.0252602689
Cu           10.5606464965        6.3363897423        2.0252583750
Pd            8.4485135634        6.3363836324        3.5549495349
Pd           10.5606406013        4.2242543590        3.5549480944
Cu            0.0000000000        0.0000000000        5.0176965776
Cu            2.1121208105        2.1121269832        5.0176886260
Cu            0.0000000000        4.2242543590        5.0176883865
Cu            2.1121208105        6.3363833758        5.0176886260
Cu            4.2242522267        0.0000000000        5.0176790448
Cu            6.3363823590        2.1121152916        5.0176822186
Cu            4.2242457444        4.2242543590        5.0176905321
Cu            6.3363823590        6.3363950674        5.0176822186
Cu            8.4485108503        0.0000000000        5.0176790448
Cu           10.5606439075        2.1121269832        5.0176886260
Cu            8.4485173326        4.2242543590        5.0176905321
Cu           10.5606439075        6.3363833758        5.0176886260
End final coordinates

     Writing output data file /users/aafshar4/scratch/CuPd_rlx_1st_PBE.save/

     General routines

     Parallel routines

   This run was terminated on:   3:39:12  11Oct2022

   JOB DONE.
[1665473952.346074] [node1832:162939:0]          mpool.c:43   UCX  WARN  object 0x3364e40 was not returned to mpool ucp_requests
[1665473952.346156] [node1831:214036:0]          mpool.c:43   UCX  WARN  object 0x3d728c0 was not returned to mpool ucp_requests
[1665473952.346169] [node1831:214036:0]          mpool.c:43   UCX  WARN  object 0x3d752c0 was not returned to mpool ucp_requests
[1665473952.347663] [node1831:214038:0]          mpool.c:43   UCX  WARN  object 0x46cc340 was not returned to mpool ucp_requests
[1665473952.347674] [node1831:214038:0]          mpool.c:43   UCX  WARN  object 0x46cf440 was not returned to mpool ucp_requests
[1665473952.360245] [node1831:214033:0]          mpool.c:43   UCX  WARN  object 0x2e1b3c0 was not returned to mpool ucp_requests
[1665473952.364372] [node1831:214013:0]          mpool.c:43   UCX  WARN  object 0x3282240 was not returned to mpool ucp_requests
[1665473952.368612] [node1831:214035:0]          mpool.c:43   UCX  WARN  object 0x36468c0 was not returned to mpool ucp_requests
[1665473952.368624] [node1831:214035:0]          mpool.c:43   UCX  WARN  object 0x364d8c0 was not returned to mpool ucp_requests
[1665473952.368806] [node1831:214041:0]          mpool.c:43   UCX  WARN  object 0x413a5c0 was not returned to mpool ucp_requests
[1665473952.368818] [node1831:214041:0]          mpool.c:43   UCX  WARN  object 0x413ab00 was not returned to mpool ucp_requests
[1665473952.375260] [node1831:214020:0]          mpool.c:43   UCX  WARN  object 0x2e7a540 was not returned to mpool ucp_requests
[1665473952.375276] [node1831:214020:0]          mpool.c:43   UCX  WARN  object 0x2e7ac40 was not returned to mpool ucp_requests
[1665473952.346104] [node1832:162938:0]          mpool.c:43   UCX  WARN  object 0x3635ec0 was not returned to mpool ucp_requests
[1665473952.346115] [node1832:162938:0]          mpool.c:43   UCX  WARN  object 0x3638000 was not returned to mpool ucp_requests
[1665473952.345637] [node1832:162937:0]          mpool.c:43   UCX  WARN  object 0x4010b40 was not returned to mpool ucp_requests
[1665473952.358260] [node1832:162967:0]          mpool.c:43   UCX  WARN  object 0x2d8d600 was not returned to mpool ucp_requests
[1665473952.362567] [node1832:162954:0]          mpool.c:43   UCX  WARN  object 0x4d55d80 was not returned to mpool ucp_requests
[1665473952.362580] [node1832:162954:0]          mpool.c:43   UCX  WARN  object 0x4d5afc0 was not returned to mpool ucp_requests
[1665473952.372331] [node1832:162959:0]          mpool.c:43   UCX  WARN  object 0x32f6b00 was not returned to mpool ucp_requests
[1665473952.372342] [node1832:162959:0]          mpool.c:43   UCX  WARN  object 0x32f8a80 was not returned to mpool ucp_requests
[1665473952.380367] [node1832:162962:0]          mpool.c:43   UCX  WARN  object 0x42f0d40 was not returned to mpool ucp_requests
[1665473952.380749] [node1831:214030:0]          mpool.c:43   UCX  WARN  object 0x35db500 was not returned to mpool ucp_requests
[1665473952.380760] [node1831:214030:0]          mpool.c:43   UCX  WARN  object 0x35dcbc0 was not returned to mpool ucp_requests
[1665473952.382667] [node1831:214025:0]          mpool.c:43   UCX  WARN  object 0x420cf00 was not returned to mpool ucp_requests
[1665473952.382679] [node1831:214025:0]          mpool.c:43   UCX  WARN  object 0x4213b80 was not returned to mpool ucp_requests
[1665473952.383539] [node1831:214043:0]          mpool.c:43   UCX  WARN  object 0x41dd6c0 was not returned to mpool ucp_requests
[1665473952.383551] [node1831:214043:0]          mpool.c:43   UCX  WARN  object 0x41de140 was not returned to mpool ucp_requests
[1665473952.383994] [node1831:214027:0]          mpool.c:43   UCX  WARN  object 0x44e3dc0 was not returned to mpool ucp_requests
[1665473952.384006] [node1831:214027:0]          mpool.c:43   UCX  WARN  object 0x44e5800 was not returned to mpool ucp_requests
[1665473952.383668] [node1831:214028:0]          mpool.c:43   UCX  WARN  object 0x3193680 was not returned to mpool ucp_requests
[1665473952.384706] [node1831:214019:0]          mpool.c:43   UCX  WARN  object 0x3c71380 was not returned to mpool ucp_requests
[1665473952.384717] [node1831:214019:0]          mpool.c:43   UCX  WARN  object 0x3c73140 was not returned to mpool ucp_requests
[1665473952.383291] [node1831:214014:0]          mpool.c:43   UCX  WARN  object 0x3349fc0 was not returned to mpool ucp_requests
[1665473952.383302] [node1831:214014:0]          mpool.c:43   UCX  WARN  object 0x334ba00 was not returned to mpool ucp_requests
[1665473952.385450] [node1831:214017:0]          mpool.c:43   UCX  WARN  object 0x3d18340 was not returned to mpool ucp_requests
[1665473952.386205] [node1831:214022:0]          mpool.c:43   UCX  WARN  object 0x3e19540 was not returned to mpool ucp_requests
[1665473952.386217] [node1831:214022:0]          mpool.c:43   UCX  WARN  object 0x3e1c800 was not returned to mpool ucp_requests
[1665473952.386219] [node1831:214022:0]          mpool.c:43   UCX  WARN  object 0x3e1cb80 was not returned to mpool ucp_requests
[1665473952.383734] [node1831:214016:0]          mpool.c:43   UCX  WARN  object 0x3eb5c80 was not returned to mpool ucp_requests
[1665473952.383746] [node1831:214016:0]          mpool.c:43   UCX  WARN  object 0x3ebd000 was not returned to mpool ucp_requests
[1665473952.380910] [node1832:162946:0]          mpool.c:43   UCX  WARN  object 0x3500840 was not returned to mpool ucp_requests
[1665473952.380921] [node1832:162946:0]          mpool.c:43   UCX  WARN  object 0x3502d00 was not returned to mpool ucp_requests
[1665473952.384353] [node1832:162951:0]          mpool.c:43   UCX  WARN  object 0x327ae80 was not returned to mpool ucp_requests
[1665473952.383857] [node1832:162942:0]          mpool.c:43   UCX  WARN  object 0x44a0240 was not returned to mpool ucp_requests
[1665473952.383868] [node1832:162942:0]          mpool.c:43   UCX  WARN  object 0x44a1580 was not returned to mpool ucp_requests
[1665473952.382546] [node1832:162940:0]          mpool.c:43   UCX  WARN  object 0x379b740 was not returned to mpool ucp_requests
[1665473952.382557] [node1832:162940:0]          mpool.c:43   UCX  WARN  object 0x37a00c0 was not returned to mpool ucp_requests