     Program PWSCF v.6.6 starts on  3Sep2022 at 19:54:52

     R & G space division:  proc/nbgrp/npool/nimage =      72
     Fft bands division:     nmany     =       1
     Waiting for input...
     Reading input from standard input
Warning: card  &CELL ignored
Warning: card     CELL_DYNAMICS = 'BFGS', ignored
Warning: card     PRESS=0.0, ignored
Warning: card / ignored

     Current dimensions of program PWSCF are:
     Max number of different atomic species (ntypx) = 10
     Max number of k-points (npk) =  40000
     Max angular momentum in pseudopotentials (lmaxx) =  3

     IMPORTANT: XC functional enforced from input :
     Exchange-correlation= PBE
                           (   1   4   3   4   0   0   0)
     Any further DFT definition will be discarded
     Please, verify this is what you really want

     Found symmetry operation: I + (  0.0000  0.3333  0.0000)
     This is a supercell, fractional translations are disabled
     Message from routine setup:
     using ibrav=0 with symmetry is DISCOURAGED, use correct ibrav instead

     bravais-lattice index     =            0
     lattice parameter (alat)  =      27.7107  a.u.
     unit-cell volume          =   22620.2167 (a.u.)^3
     number of atoms/cell      =           72
     number of atomic types    =            1
     number of electrons       =      1152.00
     number of Kohn-Sham states=          691
     kinetic-energy cutoff     =      30.0000  Ry
     charge density cutoff     =     350.0000  Ry
     convergence threshold     =      1.0E-06
     mixing beta               =       0.3000
     number of iterations used =            8  plain     mixing
     Exchange-correlation= PBE
                           (   1   4   3   4   0   0   0)
     nstep                     =           50

     celldm(1)=  27.710717  celldm(2)=   0.000000  celldm(3)=   0.000000
     celldm(4)=   0.000000  celldm(5)=   0.000000  celldm(6)=   0.000000

     crystal axes: (cart. coord. in units of alat)
               a(1) = (   1.000000   0.000000   0.000000 )
               a(2) = (   0.000000   0.577349   0.000000 )
               a(3) = (   0.000000   0.000000   1.841259 )

     reciprocal axes: (cart. coord. in units 2 pi/alat)
               b(1) = (  1.000000  0.000000  0.000000 )
               b(2) = (  0.000000  1.732054  0.000000 )
               b(3) = (  0.000000  0.000000  0.543107 )

     PseudoPot. # 1 for Pd read from file:
     ./pseudo-gbrv-pbe/pd_pbe_v1.4.uspp.F.UPF
     MD5 check sum: 2d733d2bc2cbfd217af676df1668a4bc
     Pseudo is Ultrasoft + core correction, Zval = 16.0
     Generated by new atomic code, or converted to UPF format
     Using radial grid of  887 points,  6 beta functions with:
                l(1) =   0
                l(2) =   0
                l(3) =   1
                l(4) =   1
                l(5) =   2
                l(6) =   2
     Q(r) pseudized with  8 coefficients,  rinner =    1.130   1.130   1.130
                                                       1.130   1.130

     atomic species   valence    mass     pseudopotential
        Pd            16.00   106.42000     Pd( 1.00)

      2 Sym. Ops. (no inversion) found

   Cartesian axes

     site n.     atom                  positions (alat units)
         1           Pd  tau(   1) = (   0.0000000   0.0000000   0.0000000  )
         2           Pd  tau(   2) = (   0.0000000   0.0000000   0.4714042  )
         3           Pd  tau(   3) = (   0.0000000   0.1924500   0.0000000  )
         4           Pd  tau(   4) = (   0.0000000   0.1924500   0.4714042  )
         5           Pd  tau(   5) = (   0.0000000   0.3848999   0.0000000  )
         6           Pd  tau(   6) = (   0.0000000   0.3848999   0.4714042  )
         7           Pd  tau(   7) = (   0.3333331   0.0000000   0.0000000  )
         8           Pd  tau(   8) = (   0.3333331   0.0000000   0.4714042  )
         9           Pd  tau(   9) = (   0.3333331   0.1924500   0.0000000  )
        10           Pd  tau(  10) = (   0.3333331   0.1924500   0.4714042  )
        11           Pd  tau(  11) = (   0.3333331   0.3848999   0.0000000  )
        12           Pd  tau(  12) = (   0.3333331   0.3848999   0.4714042  )
        13           Pd  tau(  13) = (   0.6666662   0.0000000   0.0000000  )
        14           Pd  tau(  14) = (   0.6666662   0.0000000   0.4714042  )
        15           Pd  tau(  15) = (   0.6666662   0.1924500   0.0000000  )
        16           Pd  tau(  16) = (   0.6666662   0.1924500   0.4714042  )
        17           Pd  tau(  17) = (   0.6666662   0.3848999   0.0000000  )
        18           Pd  tau(  18) = (   0.6666662   0.3848999   0.4714042  )
        19           Pd  tau(  19) = (   0.2777776   0.0962250   0.1571347  )
        20           Pd  tau(  20) = (   0.2777776   0.2886750   0.1571347  )
        21           Pd  tau(  21) = (   0.2777776   0.4811249   0.1571347  )
        22           Pd  tau(  22) = (   0.6111107   0.0962250   0.1571347  )
        23           Pd  tau(  23) = (   0.6111107   0.2886750   0.1571347  )
        24           Pd  tau(  24) = (   0.6111107   0.4811249   0.1571347  )
        25           Pd  tau(  25) = (   0.9444438   0.0962250   0.1571347  )
        26           Pd  tau(  26) = (   0.9444438   0.2886750   0.1571347  )
        27           Pd  tau(  27) = (   0.9444438   0.4811249   0.1571347  )
        28           Pd  tau(  28) = (   0.1111110   0.0000000   0.1571347  )
        29           Pd  tau(  29) = (   0.1111110   0.1924500   0.1571347  )
        30           Pd  tau(  30) = (   0.1111110   0.3848999   0.1571347  )
        31           Pd  tau(  31) = (   0.4444442   0.0000000   0.1571347  )
        32           Pd  tau(  32) = (   0.4444442   0.1924500   0.1571347  )
        33           Pd  tau(  33) = (   0.4444442   0.3848999   0.1571347  )
        34           Pd  tau(  34) = (   0.7777772   0.0000000   0.1571347  )
        35           Pd  tau(  35) = (   0.7777772   0.1924500   0.1571347  )
        36           Pd  tau(  36) = (   0.7777772   0.3848999   0.1571347  )
        37           Pd  tau(  37) = (   0.2222221   0.0000000   0.3142695  )
        38           Pd  tau(  38) = (   0.2222221   0.1924500   0.3142695  )
        39           Pd  tau(  39) = (   0.2222221   0.3848999   0.3142695  )
        40           Pd  tau(  40) = (   0.5555551   0.0000000   0.3142695  )
        41           Pd  tau(  41) = (   0.5555551   0.1924500   0.3142695  )
        42           Pd  tau(  42) = (   0.5555551   0.3848999   0.3142695  )
        43           Pd  tau(  43) = (   0.8888883   0.0000000   0.3142695  )
        44           Pd  tau(  44) = (   0.8888883   0.1924500   0.3142695  )
        45           Pd  tau(  45) = (   0.8888883   0.3848999   0.3142695  )
        46           Pd  tau(  46) = (   0.0555555   0.0962250   0.3142695  )
        47           Pd  tau(  47) = (   0.0555555   0.2886750   0.3142695  )
        48           Pd  tau(  48) = (   0.0555555   0.4811249   0.3142695  )
        49           Pd  tau(  49) = (   0.3888886   0.0962250   0.3142695  )
        50           Pd  tau(  50) = (   0.3888886   0.2886750   0.3142695  )
        51           Pd  tau(  51) = (   0.3888886   0.4811249   0.3142695  )
        52           Pd  tau(  52) = (   0.7222217   0.0962250   0.3142695  )
        53           Pd  tau(  53) = (   0.7222217   0.2886750   0.3142695  )
        54           Pd  tau(  54) = (   0.7222217   0.4811249   0.3142695  )
        55           Pd  tau(  55) = (   0.1666665   0.0962250   0.0000000  )
        56           Pd  tau(  56) = (   0.1666665   0.0962250   0.4714042  )
        57           Pd  tau(  57) = (   0.1666665   0.2886750   0.0000000  )
        58           Pd  tau(  58) = (   0.1666665   0.2886750   0.4714042  )
        59           Pd  tau(  59) = (   0.1666665   0.4811249   0.0000000  )
        60           Pd  tau(  60) = (   0.1666665   0.4811249   0.4714042  )
        61           Pd  tau(  61) = (   0.4999997   0.0962250   0.0000000  )
        62           Pd  tau(  62) = (   0.4999997   0.0962250   0.4714042  )
        63           Pd  tau(  63) = (   0.4999997   0.2886750   0.0000000  )
        64           Pd  tau(  64) = (   0.4999997   0.2886750   0.4714042  )
        65           Pd  tau(  65) = (   0.4999997   0.4811249   0.0000000  )
        66           Pd  tau(  66) = (   0.4999997   0.4811249   0.4714042  )
        67           Pd  tau(  67) = (   0.8333328   0.0962250   0.0000000  )
        68           Pd  tau(  68) = (   0.8333328   0.0962250   0.4714042  )
        69           Pd  tau(  69) = (   0.8333328   0.2886750   0.0000000  )
        70           Pd  tau(  70) = (   0.8333328   0.2886750   0.4714042  )
        71           Pd  tau(  71) = (   0.8333328   0.4811249   0.0000000  )
        72           Pd  tau(  72) = (   0.8333328   0.4811249   0.4714042  )

     number of k points=     9  Methfessel-Paxton smearing, width (Ry)=  0.0200
                       cart. coord. in units 2pi/alat
        k(    1) = (   0.0000000   0.0000000   0.0000000), wk =   0.1250000
        k(    2) = (   0.0000000   0.4330135   0.0000000), wk =   0.2500000
        k(    3) = (   0.0000000  -0.8660269   0.0000000), wk =   0.1250000
        k(    4) = (   0.2500000   0.0000000   0.0000000), wk =   0.2500000
        k(    5) = (   0.2500000   0.4330135   0.0000000), wk =   0.5000000
        k(    6) = (   0.2500000  -0.8660269   0.0000000), wk =   0.2500000
        k(    7) = (  -0.5000000   0.0000000   0.0000000), wk =   0.1250000
        k(    8) = (  -0.5000000   0.4330135   0.0000000), wk =   0.2500000
        k(    9) = (  -0.5000000  -0.8660269   0.0000000), wk =   0.1250000

     Initial potential from superposition of free atoms

     starting charge 1115.99950, renormalised to 1152.00000

     negative rho (up, down):  5.634E+00 0.000E+00
     Starting wfcs are  864 randomized atomic wfcs

     Self-consistent Calculation

     iteration #  1     ecut=    30.00 Ry     beta= 0.30
     Davidson diagonalization with overlap
     ethr =  1.00E-02,  avg # of iterations =  8.1

     negative rho (up, down):  5.594E+00 0.000E+00

     total energy              =  -14209.72987954 Ry
     estimated scf accuracy    <     271.25899885 Ry

[...]

     iteration # 23     ecut=    30.00 Ry     beta= 0.30
     Davidson diagonalization with overlap
     c_bands:  1 eigenvalues not converged
     ethr =  1.02E-04,  avg # of iterations =  5.6

[...]

     End of self-consistent calculation

          k = 0.0000 0.0000 0.0000 ( 62771 PWs)   bands (ev):

   -47.5433 -47.5275 -47.5119 -47.5119 -47.5119 -47.5119 -47.5026 -47.5009
   -47.5009 -47.5009 -47.5009 -47.4902 -47.4902 -47.4886 -47.4886 -47.4885
   -47.4885 -47.4870 -47.4870 -47.4824 -47.4823 -47.4821 -47.4821 -47.4821
   -47.4821 -47.4738 -47.4738 -47.4735 -47.4735 -47.4720 -47.4720 -47.4705
   -47.4705 -47.4438 -47.4438 -47.4311 -47.4311 -47.4191 -47.4190 -47.4178
   -47.4178 -47.4178 -47.4177 -47.4161 -47.4161 -47.4161 -47.4161 -47.4112
   -47.4112 -47.4102 -47.3934 -47.3934 -47.3934 -47.3934 -47.3819 -47.3819
   -47.3714 -47.3714 -47.3704 -47.3704 -47.3681 -47.3676 -47.3667 -47.3666
[...]
     0.6683   0.6684   0.6685   0.6686   0.7269   0.7269   0.8084   0.8084
     0.8085   0.8085   0.8180   0.8180   0.8181   0.8181   0.8183   0.8184
     0.8184   0.8185   0.8745   0.8746   0.8746   0.8746   0.9235   0.9235
     0.9235   0.9235   0.9236   0.9237   0.9237   0.9237   0.9723   0.9723
     0.9724   0.9725   1.0573   1.0573   1.0574   1.0575   1.0618   1.0618
     1.1183   1.1183   1.1184   1.1184   1.1193   1.1193   1.1194   1.1194
[...]
     2.3133   2.3134   2.4135   2.4135   2.4818   2.4818   2.4819   2.4819
     2.4831   2.4831   2.4831   2.4831   2.5473   2.5474   2.5474   2.5474
     2.5729   2.5729   2.6102   2.6102   3.7886   3.7886   3.7887   3.7887
     4.2065   4.2065   4.3546   4.3547   4.3548   4.3549   4.5725   4.5725
     4.5726   4.5726   4.5751   4.5751   4.5751   4.5752   5.1896   5.1897
     5.1898   5.1898   5.1918   5.1919   5.1919   5.1919   5.4011   5.4011
     5.8482   5.8483   5.8483   5.8485   5.9612   5.9612   5.9614   5.9614
     5.9780   5.9780   6.0007   6.0007   6.4366   6.4367   6.4368   6.4369
     6.4385   6.4385   6.4385   6.4385   7.8502   7.8502   7.8502   7.8502
     7.9167   7.9167   7.9169   7.9169   7.9901   7.9901   7.9902   7.9902
     8.2553   8.2554   8.2555   8.2557   8.2559   8.2560   8.2560   8.2560
     8.6465   8.6465   8.6466   8.6466   9.1449   9.1449   9.1449   9.1449
     9.2094   9.2094   9.2828   9.2828   9.2828   9.2828   9.3078   9.3078
     9.3140   9.3140   9.3141   9.3141   9.7596   9.7597   9.7599   9.7599
     9.7599   9.7599   9.7600

     the Fermi energy is     2.3276 ev

!    total energy              =  -14303.14489504 Ry
     estimated scf accuracy    <          7.3E-09 Ry
     smearing contrib. (-TS)   =      -0.07823431 Ry
     internal energy E=F+TS    =  -14303.06666073 Ry

     The total energy is F=E-TS. E is the sum of the following terms:
     one-electron contribution = -148898.56199237 Ry
     hartree contribution      =   74764.22654634 Ry
     xc contribution           =   -2253.57604150 Ry
     ewald contribution        =   62084.84482680 Ry

     convergence has been achieved in  32 iterations

     negative rho (up, down):  5.738E+00 0.000E+00

     Forces acting on atoms (cartesian axes, Ry/au):

     atom    1 type  1   force =    -0.00000765    0.00000000    0.00026741
     atom    2 type  1   force =     0.00003577    0.00000000   -0.00023458
     atom    3 type  1   force =    -0.00000762    0.00000872    0.00027287
     atom    4 type  1   force =     0.00003624    0.00000775   -0.00024050
     atom    5 type  1   force =    -0.00000762   -0.00000872    0.00027287
     atom    6 type  1   force =     0.00003624   -0.00000775   -0.00024050
     atom    7 type  1   force =    -0.00005459    0.00000000    0.00026308
     atom    8 type  1   force =     0.00004385    0.00000000   -0.00025116
     atom    9 type  1   force =    -0.00005500    0.00000994    0.00026893
     atom   10 type  1   force =     0.00004387    0.00000711   -0.00025666
     atom   11 type  1   force =    -0.00005500   -0.00000994    0.00026893
     atom   12 type  1   force =     0.00004387   -0.00000711   -0.00025666
     atom   13 type  1   force =    -0.00005931    0.00000000    0.00023871
     atom   14 type  1   force =     0.00004346    0.00000000   -0.00023854
     atom   15 type  1   force =    -0.00006045    0.00000871    0.00024384
     atom   16 type  1   force =     0.00004412    0.00000696   -0.00024382
     atom   17 type  1   force =    -0.00006045   -0.00000871    0.00024384
     atom   18 type  1   force =     0.00004412   -0.00000696   -0.00024382
     atom   19 type  1   force =     0.00000332    0.00001113   -0.00065413
     atom   20 type  1   force =     0.00000361    0.00000000   -0.00065371
     atom   21 type  1   force =     0.00000332   -0.00001113   -0.00065413
     atom   22 type  1   force =     0.00001035    0.00000997   -0.00063875
     atom   23 type  1   force =     0.00001030    0.00000000   -0.00063868
     atom   24 type  1   force =     0.00001035   -0.00000997   -0.00063875
     atom   25 type  1   force =     0.00004048    0.00001019   -0.00064024
     atom   26 type  1   force =     0.00004135    0.00000000   -0.00063899
     atom   27 type  1   force =     0.00004048   -0.00001019   -0.00064024
     atom   28 type  1   force =     0.00003001    0.00000000   -0.00066226
     atom   29 type  1   force =     0.00003079    0.00001121   -0.00066135
     atom   30 type  1   force =     0.00003079   -0.00001121   -0.00066135
     atom   31 type  1   force =    -0.00001115    0.00000000   -0.00064176
     atom   32 type  1   force =    -0.00001149    0.00001102   -0.00064113
     atom   33 type  1   force =    -0.00001149   -0.00001102   -0.00064113
     atom   34 type  1   force =     0.00003523    0.00000000   -0.00062901
     atom   35 type  1   force =     0.00003562    0.00001040   -0.00062786
     atom   36 type  1   force =     0.00003562   -0.00001040   -0.00062786
     atom   37 type  1   force =    -0.00000380    0.00000000    0.00061672
     atom   38 type  1   force =    -0.00000413    0.00001067    0.00061440
     atom   39 type  1   force =    -0.00000413   -0.00001067    0.00061440
     atom   40 type  1   force =    -0.00003263    0.00000000    0.00064121
     atom   41 type  1   force =    -0.00003303    0.00000962    0.00063884
     atom   42 type  1   force =    -0.00003303   -0.00000962    0.00063884
     atom   43 type  1   force =    -0.00001755    0.00000000    0.00063282
     atom   44 type  1   force =    -0.00001756    0.00001013    0.00063099
     atom   45 type  1   force =    -0.00001756   -0.00001013    0.00063099
     atom   46 type  1   force =    -0.00001759    0.00001022    0.00061687
     atom   47 type  1   force =    -0.00001772    0.00000000    0.00061551
     atom   48 type  1   force =    -0.00001759   -0.00001022    0.00061687
     atom   49 type  1   force =    -0.00002579    0.00000958    0.00063237
     atom   50 type  1   force =    -0.00002635    0.00000000    0.00062990
     atom   51 type  1   force =    -0.00002579   -0.00000958    0.00063237
     atom   52 type  1   force =    -0.00000913    0.00000946    0.00064009
     atom   53 type  1   force =    -0.00000911    0.00000000    0.00063835
     atom   54 type  1   force =    -0.00000913   -0.00000946    0.00064009
     atom   55 type  1   force =    -0.00002983    0.00000927    0.00027656
     atom   56 type  1   force =     0.00004785    0.00000734   -0.00024050
     atom   57 type  1   force =    -0.00002948    0.00000000    0.00028247
     atom   58 type  1   force =     0.00004788    0.00000000   -0.00024657
     atom   59 type  1   force =    -0.00002983   -0.00000927    0.00027656
     atom   60 type  1   force =     0.00004785   -0.00000734   -0.00024050
     atom   61 type  1   force =    -0.00006401    0.00000923    0.00024406
     atom   62 type  1   force =     0.00002252    0.00000660   -0.00024811
     atom   63 type  1   force =    -0.00006509    0.00000000    0.00024968
     atom   64 type  1   force =     0.00002298    0.00000000   -0.00025368
     atom   65 type  1   force =    -0.00006401   -0.00000923    0.00024406
     atom   66 type  1   force =     0.00002252   -0.00000660   -0.00024811
     atom   67 type  1   force =    -0.00003029    0.00000830    0.00025441
     atom   68 type  1   force =     0.00005040    0.00000716   -0.00024113
     atom   69 type  1   force =    -0.00003075    0.00000000    0.00025991
     atom   70 type  1   force =     0.00005150    0.00000000   -0.00024690
     atom   71 type  1   force =    -0.00003029   -0.00000830    0.00025441
     atom   72 type  1   force =     0.00005040   -0.00000716   -0.00024113

     Total force =     0.004121     Total SCF correction =     0.000598
     SCF correction compared to forces is large: reduce conv_thr to get better values

     Computing stress (Cartesian axis) and pressure

     negative rho (up, down):  5.738E+00 0.000E+00
          total   stress  (Ry/bohr**3)                   (kbar)     P=     -134.18
  -0.00096474   0.00000000   0.00000062         -141.92        0.00        0.09
   0.00000000  -0.00096148   0.00000000            0.00     -141.44        0.00
   0.00000062   0.00000000  -0.00081028            0.09        0.00     -119.20

     bfgs converged in   9 scf cycles and   8 bfgs steps
     (criteria: energy <  1.0E-04 Ry, force <  1.0E-03 Ry/Bohr)

     End of BFGS Geometry Optimization

     Final energy   =  -14303.1448950429 Ry

     File /users/aafshar4/scratch/Pd_relax.bfgs deleted, as requested
Begin final coordinates

ATOMIC_POSITIONS (angstrom)
Pd           -0.0003493625        0.0000000000        0.0808826494
Pd            0.0000354513        0.0000000000        6.8316059340
Pd           -0.0003568623        2.8220290009        0.0808774648
Pd            0.0000465810        2.8220323290        6.8316132368
Pd           -0.0003568623        5.6441599991        0.0808774648
Pd            0.0000465810        5.6441566710        6.8316132368
Pd            4.8878964232        0.0000000000        0.0810000960
Pd            4.8881339784        0.0000000000        6.8316336001
Pd            4.8878900784        2.8220254628        0.0809972798
Pd            4.8881462746        2.8220342391        6.8316421525
Pd            4.8878900784        5.6441635372        0.0809972798
Pd            4.8881462746        5.6441547609        6.8316421525
Pd            9.7759211470        0.0000000000        0.0809624918
Pd            9.7760836064        0.0000000000        6.8316508327
Pd            9.7759172656        2.8220292509        0.0809596327
Pd            9.7760934426        2.8220346429        6.8316586190
Pd            9.7759172656        5.6441597491        0.0809596327
Pd            9.7760934426        5.6441543571        6.8316586190
Pd            4.0728623912        1.4109994469        2.3418233142
Pd            4.0728589914        4.2330950000        2.3418190211
Pd            4.0728623912        7.0551905531        2.3418233142
Pd            8.9608860938        1.4110024361        2.3417815143
Pd            8.9608837779        4.2330950000        2.3417789899
Pd            8.9608860938        7.0551875639        2.3417815143
Pd           13.8486079954        1.4110012930        2.3417488868
Pd           13.8486031512        4.2330950000        2.3417419621
Pd           13.8486079954        7.0551887070        2.3417488868
Pd            1.6287308856        0.0000000000        2.3418157266
Pd            1.6287271320        2.8220281683        2.3418096389
Pd            1.6287271320        5.6441608317        2.3418096389
Pd            6.5169604558        0.0000000000        2.3417998576
Pd            6.5169593494        2.8220294242        2.3417952495
Pd            6.5169593494        5.6441595758        2.3417952495
Pd           11.4047272459        0.0000000000        2.3417383105
Pd           11.4047248176        2.8220303753        2.3417324356
Pd           11.4047248176        5.6441586247        2.3417324356
Pd            3.2590523963        0.0000000000        4.5708948362
Pd            3.2590592568        2.8220297934        4.5709023309
Pd            3.2590592568        5.6441592066        4.5709023309
Pd            8.1471827151        0.0000000000        4.5708428932
Pd            8.1471895789        2.8220326987        4.5708514663
Pd            8.1471895789        5.6441563013        4.5708514663
Pd           13.0349449727        0.0000000000        4.5708504001
Pd           13.0349517701        2.8220311603        4.5708567894
Pd           13.0349517701        5.6441578397        4.5708567894
Pd            0.8150314448        1.4110010422        4.5708825140
Pd            0.8150384656        4.2330950000        4.5708864518
Pd            0.8150314448        7.0551889578        4.5708825140
Pd            5.7031770624        1.4110031686        4.5708649062
Pd            5.7031842062        4.2330950000        4.5708722415
Pd            5.7031770624        7.0551868314        4.5708649062
Pd           10.5910370222        1.4110032459        4.5708480447
Pd           10.5910434007        4.2330950000        4.5708536625
Pd           10.5910370222        7.0551867541        4.5708480447
Pd            2.4437251910        1.4109978568        0.0809522103
Pd            2.4440424386        1.4110038536        6.8316244765
Pd            2.4437152340        4.2330950000        0.0809482409
Pd            2.4440534092        4.2330950000        6.8316327238
Pd            2.4437251910        7.0551921432        0.0809522103
Pd            2.4440424386        7.0551861464        6.8316244765
Pd            7.3319878182        1.4109980190        0.0810187384
Pd            7.3322329101        1.4110063087        6.8316352595
Pd            7.3319825599        4.2330950000        0.0810167409
Pd            7.3322421825        4.2330950000        6.8316449255
Pd            7.3319878182        7.0551919810        0.0810187384
Pd            7.3322329101        7.0551836913        6.8316352595
Pd           12.2196974635        1.4110007599        0.0808661474
Pd           12.2199371759        1.4110042388        6.8316379931
Pd           12.2196902695        4.2330950000        0.0808607536
Pd           12.2199440529        4.2330950000        6.8316460548
Pd           12.2196974635        7.0551892401        0.0808661474
Pd           12.2199371759        7.0551857612        6.8316379931
End final coordinates

     Writing output data file /users/aafshar4/scratch/Pd_relax.save/

     General routines

     Parallel routines

   This run was terminated on:   4: 6:19   4Sep2022

   JOB DONE.
[1662278779.119892] [node1343:216203:0]          mpool.c:43   UCX  WARN  object 0x3948a40 was not returned to mpool ucp_requests
[1662278779.119905] [node1343:216203:0]          mpool.c:43   UCX  WARN  object 0x394dc80 was not returned to mpool ucp_requests
[1662278779.139064] [node1340:49994:0]          mpool.c:43   UCX  WARN  object 0x45e7f80 was not returned to mpool ucp_requests
[1662278779.139365] [node1335:105143:0]          mpool.c:43   UCX  WARN  object 0x4a21200 was not returned to mpool ucp_requests
[1662278779.203373] [node1343:216197:0]          mpool.c:43   UCX  WARN  object 0x484ce40 was not returned to mpool ucp_requests
[1662278779.220683] [node1340:50009:0]          mpool.c:43   UCX  WARN  object 0x4167bc0 was not returned to mpool ucp_requests
[1662278779.220701] [node1340:50009:0]          mpool.c:43   UCX  WARN  object 0x416a780 was not returned to mpool ucp_requests
[1662278779.221332] [node1340:50002:0]          mpool.c:43   UCX  WARN  object 0x4af7d40 was not returned to mpool ucp_requests
[1662278779.221494] [node1340:50010:0]          mpool.c:43   UCX  WARN  object 0x4b261c0 was not returned to mpool ucp_requests
[1662278779.223377] [node1335:105138:0]          mpool.c:43   UCX  WARN  object 0x336f740 was not returned to mpool ucp_requests
[1662278779.222456] [node1340:49996:0]          mpool.c:43   UCX  WARN  object 0x35c0a80 was not returned to mpool ucp_requests
[1662278779.224003] [node1340:50004:0]          mpool.c:43   UCX  WARN  object 0x4aa1100 was not returned to mpool ucp_requests
[1662278779.224015] [node1340:50004:0]          mpool.c:43   UCX  WARN  object 0x4aa2b40 was not returned to mpool ucp_requests
[1662278779.224198] [node1335:105135:0]          mpool.c:43   UCX  WARN  object 0x3689100 was not returned to mpool ucp_requests
[1662278779.226401] [node1335:105145:0]          mpool.c:43   UCX  WARN  object 0x4504640 was not returned to mpool ucp_requests
[1662278779.222861] [node1335:105137:0]          mpool.c:43   UCX  WARN  object 0x46f7840 was not returned to mpool ucp_requests
[1662278779.224451] [node1340:49988:0]          mpool.c:43   UCX  WARN  object 0x2e993c0 was not returned to mpool ucp_requests
[1662278779.223512] [node1340:50001:0]          mpool.c:43   UCX  WARN  object 0x4646900 was not returned to mpool ucp_requests
[1662278779.225285] [node1340:50008:0]          mpool.c:43   UCX  WARN  object 0x315b080 was not returned to mpool ucp_requests
[1662278779.226943] [node1340:50000:0]          mpool.c:43   UCX  WARN  object 0x3d89a40 was not returned to mpool ucp_requests
[1662278779.226560] [node1340:49992:0]          mpool.c:43   UCX  WARN  object 0x395edc0 was not returned to mpool ucp_requests
[1662278779.230935] [node1340:49993:0]          mpool.c:43   UCX  WARN  object 0x4a02fc0 was not returned to mpool ucp_requests
[1662278779.228315] [node1335:105136:0]          mpool.c:43   UCX  WARN  object 0x3a95580 was not returned to mpool ucp_requests
[1662278779.228634] [node1335:105153:0]          mpool.c:43   UCX  WARN  object 0x46fb1c0 was not returned to mpool ucp_requests