     Program PWSCF v.6.6 starts on  9Aug2021 at 23:12:14

     R & G space division:  proc/nbgrp/npool/nimage =      16
     Fft bands division:     nmany     =       1
     Waiting for input...
     Reading input from standard input
Warning: card  &CELL ignored
Warning: card     CELL_DYNAMICS = 'BFGS', ignored
Warning: card     PRESS=0.0, ignored
Warning: card     CELL_DOFREE = '2DXY', ignored
Warning: card / ignored

     Current dimensions of program PWSCF are:
     Max number of different atomic species (ntypx) = 10
     Max number of k-points (npk) =  40000
     Max angular momentum in pseudopotentials (lmaxx) =  3

     IMPORTANT: XC functional enforced from input :
     Exchange-correlation= PBE
                           (   1   4   3   4   0   0   0)
     Any further DFT definition will be discarded
     Please, verify this is what you really want

     Found symmetry operation: I + (  0.1667  0.2500 -0.0000)
     This is a supercell, fractional translations are disabled
     Message from routine setup:
     using ibrav=0 with symmetry is DISCOURAGED, use correct ibrav instead

     bravais-lattice index     =            0
     lattice parameter (alat)  =      23.9481  a.u.
     unit-cell volume          =   20230.5091 (a.u.)^3
     number of atoms/cell      =           60
     number of atomic types    =            2
     number of electrons       =      1032.00
     number of Kohn-Sham states=          619
     kinetic-energy cutoff     =      60.0000  Ry
     charge density cutoff     =     650.0000  Ry
     convergence threshold     =      1.0E-10
     mixing beta               =       0.3000
     number of iterations used =            8  plain     mixing
     Exchange-correlation= PBE
                           (   1   4   3   4   0   0   0)
     nstep                     =           50

     celldm(1)=  23.948060  celldm(2)=   0.000000  celldm(3)=   0.000000
     celldm(4)=   0.000000  celldm(5)=   0.000000  celldm(6)=   0.000000

     crystal axes: (cart. coord. in units of alat)
               a(1) = (   1.000000   0.000000   0.000000 )
               a(2) = (   0.000000   0.666667   0.000000 )
               a(3) = (   0.000000   0.000000   2.209462 )

     reciprocal axes: (cart. coord. in units 2 pi/alat)
               b(1) = (  1.000000  0.000000  0.000000 )
               b(2) = (  0.000000  1.499998  0.000000 )
               b(3) = (  0.000000  0.000000  0.452599 )

     PseudoPot. # 1 for Cu read from file:
     ./pseudo-gbrv-pbe/cu_pbe_v1.2.uspp.F.UPF
     MD5 check sum: 6e991ff952a84172a2a52a1c1e996048
     Pseudo is Ultrasoft + core correction, Zval = 19.0
     Generated by new atomic code, or converted to UPF format
     Using radial grid of  867 points,  6 beta functions with:
                l(1) =   0
                l(2) =   0
                l(3) =   1
                l(4) =   1
                l(5) =   2
                l(6) =   2
     Q(r) pseudized with  8 coefficients,  rinner =    1.150   1.150   1.150
                                                       1.150   1.150

     PseudoPot. # 2 for Pd read from file:
     ./pseudo-gbrv-pbe/pd_pbe_v1.4.uspp.F.UPF
     MD5 check sum: 2d733d2bc2cbfd217af676df1668a4bc
     Pseudo is Ultrasoft + core correction, Zval = 16.0
     Generated by new atomic code, or converted to UPF format
     Using radial grid of  887 points,  6 beta functions with:
                l(1) =   0
                l(2) =   0
                l(3) =   1
                l(4) =   1
                l(5) =   2
                l(6) =   2
     Q(r) pseudized with  8 coefficients,  rinner =    1.130   1.130   1.130
                                                       1.130   1.130

     atomic species   valence    mass     pseudopotential
        Cu            19.00    63.54600     Cu( 1.00)
        Pd            16.00   106.42000     Pd( 1.00)

      4 Sym. Ops. (no inversion) found

   Cartesian axes

     site n.     atom                  positions (alat units)
         1           Cu  tau(   1) = (   0.0000000   0.0000000   0.0413789  )
         2           Cu  tau(   2) = (   0.1666667   0.1666666   0.0413786  )
         3           Pd  tau(   3) = (   0.0000000   0.1666665   0.1568001  )
         4           Pd  tau(   4) = (   0.1666666   0.0000000   0.1568000  )
         5           Cu  tau(   5) = (   0.0000000   0.3333332   0.0413786  )
         6           Cu  tau(   6) = (   0.1666667   0.5000000   0.0413786  )
         7           Pd  tau(   7) = (   0.0000000   0.5000001   0.1568001  )
         8           Pd  tau(   8) = (   0.1666663   0.3333332   0.1568005  )
         9           Cu  tau(   9) = (   0.3333339   0.0000000   0.0413785  )
        10           Cu  tau(  10) = (   0.4999999   0.1666655   0.0413789  )
        11           Pd  tau(  11) = (   0.3333330   0.1666664   0.1568002  )
        12           Pd  tau(  12) = (   0.4999999   0.0000000   0.1568011  )
        13           Cu  tau(  13) = (   0.3333328   0.3333332   0.0413785  )
        14           Cu  tau(  14) = (   0.4999999   0.5000010   0.0413789  )
        15           Pd  tau(  15) = (   0.3333330   0.5000002   0.1568002  )
        16           Pd  tau(  16) = (   0.4999999   0.3333332   0.1567994  )
        17           Cu  tau(  17) = (   0.6666657   0.0000000   0.0413785  )
        18           Cu  tau(  18) = (   0.8333331   0.1666666   0.0413786  )
        19           Pd  tau(  19) = (   0.6666666   0.1666664   0.1568002  )
        20           Pd  tau(  20) = (   0.8333328   0.0000000   0.1568000  )
        21           Cu  tau(  21) = (   0.6666669   0.3333332   0.0413785  )
        22           Cu  tau(  22) = (   0.8333331   0.5000000   0.0413786  )
        23           Pd  tau(  23) = (   0.6666666   0.5000002   0.1568002  )
        24           Pd  tau(  24) = (   0.8333335   0.3333332   0.1568005  )
        25           Cu  tau(  25) = (   0.0000000   0.0000000   0.2775113  )
        26           Cu  tau(  26) = (   0.1666663   0.1666663   0.2775116  )
        27           Pd  tau(  27) = (   0.0000000   0.1666663   0.3959486  )
        28           Pd  tau(  28) = (   0.1666662   0.0000000   0.3959483  )
        29           Cu  tau(  29) = (   0.0000000   0.3333332   0.2775119  )
        30           Cu  tau(  30) = (   0.1666663   0.5000002   0.2775116  )
        31           Pd  tau(  31) = (   0.0000000   0.5000003   0.3959486  )
        32           Pd  tau(  32) = (   0.1666668   0.3333332   0.3959482  )
        33           Cu  tau(  33) = (   0.3333332   0.0000000   0.2775119  )
        34           Cu  tau(  34) = (   0.4999999   0.1666666   0.2775115  )
        35           Pd  tau(  35) = (   0.3333329   0.1666668   0.3959479  )
        36           Pd  tau(  36) = (   0.4999999   0.0000000   0.3959482  )
        37           Cu  tau(  37) = (   0.3333336   0.3333332   0.2775111  )
        38           Cu  tau(  38) = (   0.4999999   0.5000000   0.2775115  )
        39           Pd  tau(  39) = (   0.3333329   0.4999998   0.3959479  )
        40           Pd  tau(  40) = (   0.4999999   0.3333332   0.3959478  )
        41           Cu  tau(  41) = (   0.6666664   0.0000000   0.2775119  )
        42           Cu  tau(  42) = (   0.8333335   0.1666663   0.2775116  )
        43           Pd  tau(  43) = (   0.6666667   0.1666668   0.3959479  )
        44           Pd  tau(  44) = (   0.8333332   0.0000000   0.3959483  )
        45           Cu  tau(  45) = (   0.6666661   0.3333332   0.2775111  )
        46           Cu  tau(  46) = (   0.8333335   0.5000002   0.2775116  )
        47           Pd  tau(  47) = (   0.6666667   0.4999998   0.3959479  )
        48           Pd  tau(  48) = (   0.8333330   0.3333332   0.3959482  )
        49           Pd  tau(  49) = (   0.0000000   0.0000000   0.5166590  )
        50           Pd  tau(  50) = (   0.1666667   0.1666666   0.5166590  )
        51           Pd  tau(  51) = (   0.0000000   0.3333332   0.5166590  )
        52           Pd  tau(  52) = (   0.1666667   0.5000000   0.5166590  )
        53           Pd  tau(  53) = (   0.3333339   0.0000000   0.5166590  )
        54           Pd  tau(  54) = (   0.4999999   0.1666655   0.5166590  )
        55           Pd  tau(  55) = (   0.3333328   0.3333332   0.5166590  )
        56           Pd  tau(  56) = (   0.4999999   0.5000010   0.5166590  )
        57           Pd  tau(  57) = (   0.6666657   0.0000000   0.5166590  )
        58           Pd  tau(  58) = (   0.8333331   0.1666666   0.5166590  )
        59           Pd  tau(  59) = (   0.6666669   0.3333332   0.5166590  )
        60           Pd  tau(  60) = (   0.8333331   0.5000000   0.5166590  )

     number of k points=     9  Methfessel-Paxton smearing, width (Ry)=  0.0200
                       cart. coord. in units 2pi/alat
        k(    1) = (   0.0000000   0.0000000   0.0000000), wk =   0.1250000
        k(    2) = (   0.0000000   0.3749996   0.0000000), wk =   0.2500000
        k(    3) = (   0.0000000  -0.7499991   0.0000000), wk =   0.1250000
        k(    4) = (   0.2500000   0.0000000   0.0000000), wk =   0.2500000
        k(    5) = (   0.2500000   0.3749996   0.0000000), wk =   0.5000000
        k(    6) = (   0.2500000  -0.7499991   0.0000000), wk =   0.2500000
        k(    7) = (  -0.5000000   0.0000000   0.0000000), wk =   0.1250000
        k(    8) = (  -0.5000000   0.3749996   0.0000000), wk =   0.2500000
        k(    9) = (  -0.5000000  -0.7499991   0.0000000), wk =   0.1250000

     Initial potential from superposition of free atoms

     starting charge  989.99970, renormalised to 1032.00000

     negative rho (up, down):  2.850E+00 0.000E+00
     Starting wfcs are  744 randomized atomic wfcs

     Self-consistent Calculation

     iteration #  1     ecut=    60.00 Ry     beta= 0.30
     Davidson diagonalization with overlap
     ethr =  1.00E-02,  avg # of iterations = 10.1

     negative rho (up, down):  2.745E+00 0.000E+00

     total energy              =  -12580.38025504 Ry
     estimated scf accuracy    <    8760.05509901 Ry

[...]

     iteration # 23     ecut=    60.00 Ry     beta= 0.30
     Davidson diagonalization with overlap
     c_bands:  3 eigenvalues not converged
     c_bands:  1 eigenvalues not converged
     ethr =  3.77E-04,  avg # of iterations = 15.1

[...]

     End of self-consistent calculation

          k = 0.0000 0.0000 0.0000 (158771 PWs)   bands (ev):

  -110.5268-110.5265-110.5263-110.5259-110.5258-110.5258-110.5258-110.5257
  -110.5257-110.5253-110.5250-110.5248-109.9543-109.9541-109.9539-109.9536
  -109.9536-109.9535-109.9535-109.9535-109.9534-109.9531-109.9530-109.9527
   -67.9366 -67.9358 -67.9356 -67.9355 -67.9354 -67.9345 -67.9344 -67.9340
   -67.9327 -67.9327 -67.9321 -67.9320 -67.9308 -67.9307 -67.9301 -67.9301
   -67.9288 -67.9284 -67.9283 -67.9274 -67.9273 -67.9272 -67.9270 -67.9263
   -67.9077 -67.9074 -67.9072 -67.9067 -67.9066 -67.9066 -67.9066 -67.9066
   -67.9065 -67.9060 -67.9058 -67.9055 -67.3921 -67.3920 -67.3920 -67.3919
   -67.3919 -67.3917 -67.3902 -67.3901 -67.3898 -67.3897 -67.3883 -67.3883
   -67.3879 -67.3879 -67.3865 -67.3864 -67.3861 -67.3860 -67.3845 -67.3843
[...]
     Davidson diagonalization with overlap
     ethr =  1.00E-13,  avg # of iterations =  1.0

[...]

     End of self-consistent calculation

[...]

          k = 0.2500-0.7500 0.0000 (158786 PWs)   bands (ev):

[...]

          k =-0.5000-0.7500 0.0000 (158756 PWs)   bands (ev):

  -110.4554-110.4552-110.4549-110.4546-110.4545-110.4544-110.4544-110.4544
  -110.4543-110.4540-110.4537-110.4534-109.9519-109.9517-109.9515-109.9513
  -109.9512-109.9512-109.9511-109.9511-109.9510-109.9508-109.9506-109.9504
   -67.8648 -67.8647 -67.8644 -67.8643 -67.8640 -67.8638 -67.8633 -67.8631
   -67.8608 -67.8607 -67.8604 -67.8603 -67.8601 -67.8600 -67.8597 -67.8596
   -67.8573 -67.8570 -67.8566 -67.8564 -67.8561 -67.8560 -67.8557 -67.8555
   -67.8330 -67.8328 -67.8325 -67.8322 -67.8321 -67.8320 -67.8320 -67.8318
   -67.8317 -67.8315 -67.8312 -67.8309 -67.3899 -67.3899 -67.3899 -67.3899
   -67.3893 -67.3893 -67.3888 -67.3888 -67.3867 -67.3867 -67.3867 -67.3867
   -67.3852 -67.3852 -67.3852 -67.3852 -67.3831 -67.3831 -67.3826 -67.3826
   -67.3821 -67.3821 -67.3820 -67.3820 -67.3216 -67.3214 -67.3212 -67.3210
   -67.3209 -67.3208 -67.3207 -67.3206 -67.3205 -67.3203 -67.3201 -67.3199
   -48.3533 -48.3533 -48.3533 -48.3533 -48.3464 -48.3464 -48.3457 -48.3457
   -48.3319 -48.3319 -48.3319 -48.3319 -48.3244 -48.3244 -48.3238 -48.3238
   -48.3206 -48.3204 -48.3199 -48.3197 -48.3191 -48.3191 -48.3191 -48.3191
   -48.3164 -48.3158 -48.3158 -48.3151 -48.3093 -48.3091 -48.3087 -48.3085
   -48.3039 -48.3039 -48.3039 -48.3039 -48.2952 -48.2952 -48.2951 -48.2951
   -48.2892 -48.2890 -48.2886 -48.2884 -48.2858 -48.2851 -48.2851 -48.2845
   -48.2805 -48.2805 -48.2805 -48.2805 -48.2779 -48.2779 -48.2772 -48.2772
   -48.2758 -48.2756 -48.2752 -48.2750 -48.2695 -48.2695 -48.2695 -48.2695
   -48.2493 -48.2493 -48.2487 -48.2487 -48.2425 -48.2425 -48.2425 -48.2425
   -47.8718 -47.8718 -47.8717 -47.8717 -47.8640 -47.8640 -47.8636 -47.8636
   -47.8454 -47.8454 -47.8453 -47.8453 -47.8281 -47.8281 -47.8281 -47.8280
   -47.8094 -47.8093 -47.8090 -47.8089 -47.7996 -47.7996 -47.7995 -47.7995
   -47.6820 -47.6818 -47.6815 -47.6814 -47.6790 -47.6788 -47.6786 -47.6784
   -47.6783 -47.6779 -47.6779 -47.6775  -4.9246  -4.9244  -4.9238  -4.9236
    -3.5636  -3.5633  -3.5630  -3.5628  -3.4653  -3.4652  -3.4647  -3.4646
    -3.1567  -3.1565  -3.1562  -3.1561  -2.8564  -2.8564  -2.8562  -2.8562
    -2.7010  -2.7009  -2.7008  -2.7008  -2.6480  -2.6479  -2.6475  -2.6475
    -2.6402  -2.6401  -2.6401  -2.6400  -2.4761  -2.4761  -2.4760  -2.4760
    -2.4419  -2.4418  -2.4415  -2.4413  -2.4088  -2.4086  -2.4082  -2.4080
    -2.3984  -2.3983  -2.3981  -2.3979  -2.3245  -2.3244  -2.3243  -2.3242
    -2.2163  -2.2163  -2.2161  -2.2160  -2.1481  -2.1481  -2.1479  -2.1479
    -2.0498  -2.0497  -2.0495  -2.0495  -2.0213  -2.0213  -2.0212  -2.0212
    -1.9414  -1.9411  -1.9409  -1.9406  -1.9164  -1.9163  -1.9162  -1.9161
    -1.7725  -1.7724  -1.7722  -1.7722  -1.7680  -1.7677  -1.7676  -1.7673
    -1.7424  -1.7422  -1.7420  -1.7418  -1.6808  -1.6808  -1.6808  -1.6807
    -1.4106  -1.4106  -1.4103  -1.4102  -1.3908  -1.3907  -1.3904  -1.3902
    -1.3113  -1.3113  -1.3110  -1.3110  -1.2359  -1.2358  -1.2356  -1.2355
    -1.2216  -1.2216  -1.2215  -1.2214  -1.1950  -1.1950  -1.1949  -1.1949
    -1.1356  -1.1355  -1.1355  -1.1355  -0.9700  -0.9699  -0.9699  -0.9699
    -0.9510  -0.9510  -0.9509  -0.9509  -0.8990  -0.8989  -0.8987  -0.8985
    -0.8350  -0.8349  -0.8348  -0.8347  -0.7509  -0.7509  -0.7508  -0.7508
    -0.7403  -0.7403  -0.7403  -0.7403  -0.7217  -0.7217  -0.7217  -0.7216
    -0.7195  -0.7194  -0.7193  -0.7192  -0.5941  -0.5940  -0.5940  -0.5940
    -0.5453  -0.5452  -0.5451  -0.5450  -0.3590  -0.3589  -0.3589  -0.3588
    -0.3309  -0.3308  -0.3306  -0.3305  -0.2765  -0.2764  -0.2761  -0.2760
    -0.2312  -0.2312  -0.2310  -0.2310  -0.2155  -0.2154  -0.2153  -0.2152
    -0.1736  -0.1736  -0.1736  -0.1736  -0.1630  -0.1629  -0.1628  -0.1627
    -0.1135  -0.1135  -0.1134  -0.1133  -0.1041  -0.1041  -0.1040  -0.1040
    -0.0197  -0.0197  -0.0196  -0.0195  -0.0190  -0.0188  -0.0188  -0.0186
     0.0102   0.0102   0.0104   0.0105   0.1029   0.1030   0.1030   0.1030
     0.1108   0.1109   0.1110   0.1110   0.1643   0.1644   0.1645   0.1646
     0.1870   0.1871   0.1874   0.1875   0.2215   0.2216   0.2217   0.2217
     0.2228   0.2228   0.2229   0.2229   0.2808   0.2809   0.2810   0.2810
     0.2831   0.2831   0.2833   0.2834   0.3832   0.3832   0.3833   0.3833
     0.4066   0.4067   0.4069   0.4071   0.4163   0.4163   0.4164   0.4165
     0.4705   0.4705   0.4706   0.4707   0.4844   0.4844   0.4844   0.4844
     0.5088   0.5089   0.5090   0.5090   0.6401   0.6401   0.6401   0.6402
     0.6542   0.6543   0.6546   0.6547   0.6695   0.6696   0.6697   0.6697
[...]
     1.0313   1.0314   1.0315   1.0315   1.0901   1.0902   1.0903   1.0904
     1.1264   1.1265   1.1267   1.1268   1.2779   1.2779   1.2781   1.2781
     1.5639   1.5640   1.5642   1.5643   2.2205   2.2206   2.2208   2.2209
     2.7081   2.7081   2.7086   2.7086   3.1605   3.1606   3.1609   3.1610
     3.5688   3.5689   3.5691   3.5692   3.8432   3.8433   3.8434   3.8435
     4.2529   4.2530   4.2531   4.2532   4.6723   4.6724   4.6727   4.6728
     4.9851   4.9852   4.9854   4.9855   5.2608   5.2608   5.2613   5.2614
     5.5315   5.5317   5.5317   5.5318   5.6029   5.6029   5.6030   5.6030
     6.4760   6.4761   6.4762   6.4762   6.6785   6.6785   6.6787   6.6787
     6.7063   6.7063   6.7067   6.7067   6.8042   6.8042   6.8043   6.8043
     7.3642   7.3642   7.3643   7.3644   7.4110   7.4111   7.4112   7.4112
     7.4232   7.4233   7.4234   7.4234   7.7065   7.7065   7.7066   7.7067
     8.1141   8.1141   8.1142   8.1143   8.5662   8.5662   8.5663   8.5664
     8.6431   8.6431   8.6432   8.6432   8.6757   8.6757   8.6759   8.6759
     8.8801   8.8801   8.8803

     the Fermi energy is     1.2639 ev

!    total energy              =  -16842.89388837 Ry
     estimated scf accuracy    <          2.5E-13 Ry
     smearing contrib. (-TS)   =       0.00309666 Ry
     internal energy E=F+TS    =  -16842.89698504 Ry

     The total energy is F=E-TS. E is the sum of the following terms:
     one-electron contribution = -170564.10962571 Ry
     hartree contribution      =   85464.80639656 Ry
     xc contribution           =   -2058.91338692 Ry
     ewald contribution        =   70315.31963103 Ry

     convergence has been achieved in   6 iterations

     negative rho (up, down):  2.827E+00 0.000E+00

     Forces acting on atoms (cartesian axes, Ry/au):

     atom    1 type  1   force =     0.00000000    0.00000000    0.00000062
     atom    2 type  1   force =     0.00000036   -0.00000002    0.00000089
     atom    3 type  2   force =     0.00000000   -0.00000007   -0.00000274
     atom    4 type  2   force =     0.00000010    0.00000000   -0.00000276
     atom    5 type  1   force =     0.00000000    0.00000000    0.00000073
     atom    6 type  1   force =     0.00000036    0.00000002    0.00000089
     atom    7 type  2   force =     0.00000000    0.00000007   -0.00000274
     atom    8 type  2   force =    -0.00000014    0.00000000   -0.00000284
     atom    9 type  1   force =     0.00000064    0.00000000    0.00000120
     atom   10 type  1   force =     0.00000000   -0.00000019    0.00000110
     atom   11 type  2   force =     0.00000003   -0.00000013   -0.00000288
     atom   12 type  2   force =     0.00000000    0.00000000   -0.00000303
     atom   13 type  1   force =     0.00000047    0.00000000    0.00000103
     atom   14 type  1   force =     0.00000000    0.00000019    0.00000110
     atom   15 type  2   force =     0.00000003    0.00000013   -0.00000288
     atom   16 type  2   force =     0.00000000    0.00000000   -0.00000281
     atom   17 type  1   force =    -0.00000064    0.00000000    0.00000120
     atom   18 type  1   force =    -0.00000036   -0.00000002    0.00000089
     atom   19 type  2   force =    -0.00000003   -0.00000013   -0.00000288
     atom   20 type  2   force =    -0.00000010    0.00000000   -0.00000276
     atom   21 type  1   force =    -0.00000047    0.00000000    0.00000103
     atom   22 type  1   force =    -0.00000036    0.00000002    0.00000089
     atom   23 type  2   force =    -0.00000003    0.00000013   -0.00000288
     atom   24 type  2   force =     0.00000014    0.00000000   -0.00000284
     atom   25 type  1   force =     0.00000000    0.00000000    0.00000492
     atom   26 type  1   force =     0.00000030    0.00000040    0.00000516
     atom   27 type  2   force =     0.00000000    0.00000002    0.00000132
     atom   28 type  2   force =     0.00000023    0.00000000    0.00000117
     atom   29 type  1   force =     0.00000000    0.00000000    0.00000616
     atom   30 type  1   force =     0.00000030   -0.00000040    0.00000516
     atom   31 type  2   force =     0.00000000   -0.00000002    0.00000132
     atom   32 type  2   force =     0.00000003    0.00000000    0.00000129
     atom   33 type  1   force =     0.00000067    0.00000000    0.00000437
     atom   34 type  1   force =     0.00000000    0.00000002    0.00000488
     atom   35 type  2   force =     0.00000017    0.00000021    0.00000115
     atom   36 type  2   force =     0.00000000    0.00000000    0.00000113
     atom   37 type  1   force =     0.00000022    0.00000000    0.00000531
     atom   38 type  1   force =     0.00000000   -0.00000002    0.00000488
     atom   39 type  2   force =     0.00000017   -0.00000021    0.00000115
     atom   40 type  2   force =     0.00000000    0.00000000    0.00000108
     atom   41 type  1   force =    -0.00000067    0.00000000    0.00000437
     atom   42 type  1   force =    -0.00000030    0.00000040    0.00000516
     atom   43 type  2   force =    -0.00000017    0.00000021    0.00000115
     atom   44 type  2   force =    -0.00000023    0.00000000    0.00000117
     atom   45 type  1   force =    -0.00000022    0.00000000    0.00000531
     atom   46 type  1   force =    -0.00000030   -0.00000040    0.00000516
     atom   47 type  2   force =    -0.00000017   -0.00000021    0.00000115
     atom   48 type  2   force =    -0.00000003    0.00000000    0.00000129
     atom   49 type  2   force =     0.00000000    0.00000000   -0.00000433
     atom   50 type  2   force =    -0.00000011    0.00000031   -0.00000433
     atom   51 type  2   force =     0.00000000    0.00000000   -0.00000412
     atom   52 type  2   force =    -0.00000011   -0.00000031   -0.00000433
     atom   53 type  2   force =    -0.00000001    0.00000000   -0.00000432
     atom   54 type  2   force =     0.00000000    0.00000013   -0.00000457
     atom   55 type  2   force =    -0.00000011    0.00000000   -0.00000463
     atom   56 type  2   force =     0.00000000   -0.00000013   -0.00000457
     atom   57 type  2   force =     0.00000001    0.00000000   -0.00000432
     atom   58 type  2   force =     0.00000011    0.00000031   -0.00000433
     atom   59 type  2   force =     0.00000011    0.00000000   -0.00000463
     atom   60 type  2   force =     0.00000011   -0.00000031   -0.00000433

     Total force =     0.000026     Total SCF correction =     0.000003
     SCF correction compared to forces is large: reduce conv_thr to get better values

     Computing stress (Cartesian axis) and pressure

     negative rho (up, down):  2.827E+00 0.000E+00
          total   stress  (Ry/bohr**3)                   (kbar)     P=      -12.13
  -0.00012222   0.00000000   0.00000000          -17.98        0.00        0.00
   0.00000000  -0.00012314   0.00000000            0.00      -18.11        0.00
   0.00000000   0.00000000  -0.00000197            0.00        0.00       -0.29

     Message from routine bfgs:
     history already reset at previous step: stopping

     bfgs converged in  20 scf cycles and  18 bfgs steps
     (criteria: energy <  1.0E-07 Ry, force <  1.0E-06 Ry/Bohr)

     End of BFGS Geometry Optimization

     Final energy   =  -16842.8938883719 Ry

     File /users/aafshar4/scratch/CuPd_rlx_1st_PBE.bfgs deleted, as requested
Begin final coordinates

ATOMIC_POSITIONS (angstrom)
Cu            0.0000000000        0.0000000000        0.4522241194
Cu            2.1121231685        2.1121270091        0.4522286587
Pd            0.0000000000        2.1121234582        1.9184454296
Pd            2.1121215502        0.0000000000        1.9184391462
Cu            0.0000000000        4.2242543590        0.4522308713
Cu            2.1121231685        6.3363833499        0.4522286587
Pd            0.0000000000        6.3363869008        1.9184454296
Pd            2.1121258636        4.2242543590        1.9184486977
Cu            4.2242553392        0.0000000000        0.4522297306
Cu            6.3363823590        2.1121143609        0.4522263055
Pd            4.2242531594        2.1121252585        1.9184436012
Pd            6.3363823590        0.0000000000        1.9184548913
Cu            4.2242441661        4.2242543590        0.4522256420
Cu            6.3363823590        6.3363959981        0.4522263055
Pd            4.2242531594        6.3363851005        1.9184436012
Pd            6.3363823590        4.2242543590        1.9184328122
Cu            8.4485077378        0.0000000000        0.4522297306
Cu           10.5606415495        2.1121270091        0.4522286587
Pd            8.4485099176        2.1121252585        1.9184436012
Pd           10.5606381558        0.0000000000        1.9184391462
Cu            8.4485189109        4.2242543590        0.4522256420
Cu           10.5606415495        6.3363833499        0.4522286587
Pd            8.4485099176        6.3363851005        1.9184436012
Pd           10.5606388544        4.2242543590        1.9184486977
Cu            0.0000000000        0.0000000000        3.4721196920
Cu            2.1121253118        2.1121179921        3.4721181522
Pd            0.0000000000        2.1121244582        4.9986783075
Pd            2.1121199898        0.0000000000        4.9986829896
Cu            0.0000000000        4.2242543590        3.4721151696
Cu            2.1121253118        6.3363923669        3.4721181522
Pd            0.0000000000        6.3363859008        4.9986783075
Pd            2.1121269362        4.2242543590        4.9986735564
Cu            4.2242438240        0.0000000000        3.4721218628
Cu            6.3363823590        2.1121283347        3.4721171107
Pd            4.2242531309        2.1121249741        4.9986770555
Pd            6.3363823590        0.0000000000        4.9986715434
Cu            4.2242558208        4.2242543590        3.4721147955
Cu            6.3363823590        6.3363820243        3.4721171107
Pd            4.2242531309        6.3363853849        4.9986770555
Pd            6.3363823590        4.2242543590        4.9986803011
Cu            8.4485192530        0.0000000000        3.4721218628
Cu           10.5606394062        2.1121179921        3.4721181522
Pd            8.4485099461        2.1121249741        4.9986770555
Pd           10.5606397162        0.0000000000        4.9986829896
Cu            8.4485072562        4.2242543590        3.4721147955
Cu           10.5606394062        6.3363923669        3.4721181522
Pd            8.4485099461        6.3363853849        4.9986770555
Pd           10.5606377818        4.2242543590        4.9986735564
Pd            0.0000000000        0.0000000000        6.7521111608
Pd            2.1121282263        2.1121258507        6.7521056598
Pd            0.0000000000        4.2242543590        6.7521026109
Pd            2.1121282263        6.3363845083        6.7521056598
Pd            4.2242559557        0.0000000000        6.7521053031
Pd            6.3363823590        2.1121195572        6.7521055067
Pd            4.2242518730        4.2242543590        6.7521050951
Pd            6.3363823590        6.3363908018        6.7521055067
Pd            8.4485071213        0.0000000000        6.7521053031
Pd           10.5606364917        2.1121258507        6.7521056598
Pd            8.4485112040        4.2242543590        6.7521050951
Pd           10.5606364917        6.3363845083        6.7521056598
End final coordinates

     Writing output data file /users/aafshar4/scratch/CuPd_rlx_1st_PBE.save/

     General routines

     Parallel routines

   This run was terminated on:   8: 9:49  11Aug2021

   JOB DONE.
[1628683789.337878] [node1654:242382:0]          mpool.c:43   UCX  WARN  object 0x2ec4540 was not returned to mpool ucp_requests
[1628683789.338870] [node1653:55436:0]          mpool.c:43   UCX  WARN  object 0x49c9300 was not returned to mpool ucp_requests
[1628683789.337912] [node1654:242381:0]          mpool.c:43   UCX  WARN  object 0x313e000 was not returned to mpool ucp_requests