     Program PWSCF v.6.6 starts on 23Apr2021 at  9:48: 1

     R & G space division:  proc/nbgrp/npool/nimage =      16
     Fft bands division:     nmany     =       1
     Waiting for input...
     Reading input from standard input
Warning: card  &CELL ignored
Warning: card     CELL_DYNAMICS = 'BFGS', ignored
Warning: card     PRESS=0.0, ignored
Warning: card     CELL_DOFREE = '2DXY', ignored
Warning: card / ignored

     Current dimensions of program PWSCF are:
     Max number of different atomic species (ntypx) = 10
     Max number of k-points (npk) =  40000
     Max angular momentum in pseudopotentials (lmaxx) =  3

     IMPORTANT: XC functional enforced from input :
     Exchange-correlation= PBE
                           (   1   4   3   4   0   0   0)
     Any further DFT definition will be discarded
     Please, verify this is what you really want

     Found symmetry operation: I + (  0.1667  0.2500  0.0000)
     This is a supercell, fractional translations are disabled
     Message from routine setup:
     using ibrav=0 with symmetry is DISCOURAGED, use correct ibrav instead

     bravais-lattice index     =            0
     lattice parameter (alat)  =      23.9481  a.u.
     unit-cell volume          =   18062.9546 (a.u.)^3
     number of atoms/cell      =           48
     number of atomic types    =            2
     number of electrons       =       840.00
     number of Kohn-Sham states=          504
     kinetic-energy cutoff     =      60.0000  Ry
     charge density cutoff     =     650.0000  Ry
     convergence threshold     =      1.0E-10
     mixing beta               =       0.3000
     number of iterations used =            8  plain     mixing
     Exchange-correlation= PBE
                           (   1   4   3   4   0   0   0)
     nstep                     =           50

     celldm(1)=  23.948060  celldm(2)=   0.000000  celldm(3)=   0.000000
     celldm(4)=   0.000000  celldm(5)=   0.000000  celldm(6)=   0.000000

     crystal axes: (cart. coord. in units of alat)
               a(1) = (   1.000000   0.000000   0.000000 )
               a(2) = (   0.000000   0.666667   0.000000 )
               a(3) = (   0.000000   0.000000   1.972734 )

     reciprocal axes: (cart. coord. in units 2 pi/alat)
               b(1) = (  1.000000  0.000000  0.000000 )
               b(2) = (  0.000000  1.499998  0.000000 )
               b(3) = (  0.000000  0.000000  0.506911 )

     PseudoPot. # 1 for Cu read from file:
     ./pseudo-gbrv-pbe/cu_pbe_v1.2.uspp.F.UPF
     MD5 check sum: 6e991ff952a84172a2a52a1c1e996048
     Pseudo is Ultrasoft + core correction, Zval = 19.0
     Generated by new atomic code, or converted to UPF format
     Using radial grid of  867 points,  6 beta functions with:
                l(1) =   0
                l(2) =   0
                l(3) =   1
                l(4) =   1
                l(5) =   2
                l(6) =   2
     Q(r) pseudized with  8 coefficients,  rinner =    1.150   1.150   1.150
                                                       1.150   1.150

     PseudoPot. # 2 for Pd read from file:
     ./pseudo-gbrv-pbe/pd_pbe_v1.4.uspp.F.UPF
     MD5 check sum: 2d733d2bc2cbfd217af676df1668a4bc
     Pseudo is Ultrasoft + core correction, Zval = 16.0
     Generated by new atomic code, or converted to UPF format
     Using radial grid of  887 points,  6 beta functions with:
                l(1) =   0
                l(2) =   0
                l(3) =   1
                l(4) =   1
                l(5) =   2
                l(6) =   2
     Q(r) pseudized with  8 coefficients,  rinner =    1.130   1.130   1.130
                                                       1.130   1.130

     atomic species   valence    mass     pseudopotential
        Cu            19.00    63.54600     Cu( 1.00)
        Pd            16.00   106.42000     Pd( 1.00)

      4 Sym. Ops. (no inversion) found

   Cartesian axes

     site n.     atom                  positions (alat units)
         1           Cu  tau(   1) = (   0.0000000   0.0000000   0.0437355  )
         2           Cu  tau(   2) = (   0.1666664   0.1666666   0.0437372  )
         3           Pd  tau(   3) = (   0.0000000   0.1666658   0.1530228  )
         4           Pd  tau(   4) = (   0.1666660   0.0000000   0.1530226  )
         5           Cu  tau(   5) = (   0.0000000   0.3333332   0.0437404  )
         6           Cu  tau(   6) = (   0.1666664   0.5000000   0.0437372  )
         7           Pd  tau(   7) = (   0.0000000   0.5000008   0.1530228  )
         8           Pd  tau(   8) = (   0.1666670   0.3333332   0.1530224  )
         9           Cu  tau(   9) = (   0.3333349   0.0000000   0.0437394  )
        10           Cu  tau(  10) = (   0.4999999   0.1666644   0.0437382  )
        11           Pd  tau(  11) = (   0.3333330   0.1666672   0.1530225  )
        12           Pd  tau(  12) = (   0.4999999   0.0000000   0.1530246  )
        13           Cu  tau(  13) = (   0.3333334   0.3333332   0.0437374  )
        14           Cu  tau(  14) = (   0.4999999   0.5000022   0.0437382  )
        15           Pd  tau(  15) = (   0.3333330   0.4999994   0.1530225  )
        16           Pd  tau(  16) = (   0.4999999   0.3333332   0.1530210  )
        17           Cu  tau(  17) = (   0.6666647   0.0000000   0.0437394  )
        18           Cu  tau(  18) = (   0.8333333   0.1666666   0.0437372  )
        19           Pd  tau(  19) = (   0.6666667   0.1666672   0.1530225  )
        20           Pd  tau(  20) = (   0.8333333   0.0000000   0.1530226  )
        21           Cu  tau(  21) = (   0.6666662   0.3333332   0.0437374  )
        22           Cu  tau(  22) = (   0.8333333   0.5000000   0.0437372  )
        23           Pd  tau(  23) = (   0.6666667   0.4999994   0.1530225  )
        24           Pd  tau(  24) = (   0.8333327   0.3333332   0.1530224  )
        25           Cu  tau(  25) = (   0.0000000   0.0000000   0.2827943  )
        26           Cu  tau(  26) = (   0.1666664   0.1666666   0.2827960  )
        27           Pd  tau(  27) = (   0.0000000   0.1666658   0.3920816  )
        28           Pd  tau(  28) = (   0.1666660   0.0000000   0.3920814  )
        29           Cu  tau(  29) = (   0.0000000   0.3333332   0.2827992  )
        30           Cu  tau(  30) = (   0.1666664   0.5000000   0.2827960  )
        31           Pd  tau(  31) = (   0.0000000   0.5000008   0.3920816  )
        32           Pd  tau(  32) = (   0.1666670   0.3333332   0.3920812  )
        33           Cu  tau(  33) = (   0.3333349   0.0000000   0.2827982  )
        34           Cu  tau(  34) = (   0.4999999   0.1666644   0.2827970  )
        35           Pd  tau(  35) = (   0.3333330   0.1666672   0.3920813  )
        36           Pd  tau(  36) = (   0.4999999   0.0000000   0.3920834  )
        37           Cu  tau(  37) = (   0.3333334   0.3333332   0.2827962  )
        38           Cu  tau(  38) = (   0.4999999   0.5000022   0.2827970  )
        39           Pd  tau(  39) = (   0.3333330   0.4999994   0.3920813  )
        40           Pd  tau(  40) = (   0.4999999   0.3333332   0.3920798  )
        41           Cu  tau(  41) = (   0.6666647   0.0000000   0.2827982  )
        42           Cu  tau(  42) = (   0.8333333   0.1666666   0.2827960  )
        43           Pd  tau(  43) = (   0.6666667   0.1666672   0.3920813  )
        44           Pd  tau(  44) = (   0.8333333   0.0000000   0.3920814  )
        45           Cu  tau(  45) = (   0.6666662   0.3333332   0.2827962  )
        46           Cu  tau(  46) = (   0.8333333   0.5000000   0.2827960  )
        47           Pd  tau(  47) = (   0.6666667   0.4999994   0.3920813  )
        48           Pd  tau(  48) = (   0.8333327   0.3333332   0.3920812  )

     number of k points=     9  Methfessel-Paxton smearing, width (Ry)=  0.0200
                       cart. coord. in units 2pi/alat
        k(    1) = (   0.0000000   0.0000000   0.0000000), wk =   0.1250000
        k(    2) = (   0.0000000   0.3749996   0.0000000), wk =   0.2500000
        k(    3) = (   0.0000000  -0.7499991   0.0000000), wk =   0.1250000
        k(    4) = (   0.2500000   0.0000000   0.0000000), wk =   0.2500000
        k(    5) = (   0.2500000   0.3749996   0.0000000), wk =   0.5000000
        k(    6) = (   0.2500000  -0.7499991   0.0000000), wk =   0.2500000
        k(    7) = (  -0.5000000   0.0000000   0.0000000), wk =   0.1250000
        k(    8) = (  -0.5000000   0.3749996   0.0000000), wk =   0.2500000
        k(    9) = (  -0.5000000  -0.7499991   0.0000000), wk =   0.1250000

     Atomic positions and unit cell read from directory:
     /users/aafshar4/scratch/CuPd_rlx_1st_BBEF-vdW.save/
     Atomic positions from file used, from input discarded

     The initial density is read from file :
     /users/aafshar4/scratch/CuPd_rlx_1st_BBEF-vdW.save/charge-density

     negative rho (up, down):  1.880E+00 0.000E+00
     Starting wfcs from file
     Calculation restarted from scf iteration #     2

     Self-consistent Calculation

     iteration #  2     ecut=    60.00 Ry     beta= 0.30
     Calculation restarted from kpoint #     5
     Davidson diagonalization with overlap
     c_bands:  2 eigenvalues not converged
     ethr =  6.46E-10,  avg # of iterations =  7.9

     negative rho (up, down):  1.880E+00 0.000E+00

     total energy              =  -14458.51603136 Ry
     estimated scf accuracy    <       0.00032777 Ry

     iteration #  3     ecut=    60.00 Ry     beta= 0.30
     Davidson diagonalization with overlap
     ethr =  6.46E-10,  avg # of iterations =  2.3

[...]

     End of self-consistent calculation

          k = 0.0000 0.0000 0.0000 (141809 PWs)   bands (ev):

  -111.0200-111.0198-111.0195-111.0192-111.0191-111.0191-111.0191-111.0190
  -111.0190-111.0186-111.0184-111.0181-110.6141-110.6139-110.6137-110.6134
  -110.6134-110.6134-110.6134-110.6133-110.6133-110.6130-110.6128-110.6126
   -68.4204 -68.4201 -68.4199 -68.4195 -68.4194 -68.4194 -68.4193 -68.4193
   -68.4192 -68.4188 -68.4186 -68.4184 -68.4183 -68.4183 -68.4183 -68.4182
   -68.4181 -68.4179 -68.4165 -68.4164 -68.4160 -68.4159 -68.4146 -68.4146
   -68.4141 -68.4141 -68.4128 -68.4126 -68.4123 -68.4121 -68.4107 -68.4105
   -68.4105 -68.4103 -68.4103 -68.4102 -68.0537 -68.0535 -68.0534 -68.0533
   -68.0533 -68.0530 -68.0517 -68.0517 -68.0511 -68.0510 -68.0498 -68.0498
   -68.0492 -68.0492 -68.0480 -68.0479 -68.0473 -68.0472 -68.0460 -68.0457
   -68.0457 -68.0456 -68.0455 -68.0453 -67.9809 -67.9806 -67.9805 -67.9801
   -67.9801 -67.9800 -67.9800 -67.9800 -67.9799 -67.9795 -67.9794 -67.9791
   -49.0074 -49.0074 -49.0072 -49.0072 -49.0056 -49.0041 -48.9855 -48.9854
   -48.9848 -48.9847 -48.9665 -48.9664 -48.9664 -48.9638 -48.9638 -48.9623
   -48.9622 -48.9583 -48.9582 -48.9580 -48.9580 -48.9579 -48.9577 -48.9542
   -48.9541 -48.9503 -48.9451 -48.9450 -48.9444 -48.9443 -48.9248 -48.9234
   -48.9234 -48.9232 -48.9232 -48.9232 -48.4448 -48.4448 -48.4447 -48.4447
   -48.4433 -48.4419 -48.4240 -48.4239 -48.4219 -48.4218 -48.4032 -48.4032
   -48.4028 -48.4028 -48.3838 -48.3837 -48.3817 -48.3817 -48.3629 -48.3617
   -48.3617 -48.3616 -48.3616 -48.3615 -48.2736 -48.2696 -48.2695 -48.2657
[...]
Cu           10.5606366463        2.1121268846        0.5243817045
Pd            8.4485112030        2.1121241694        1.9870930216
Pd           10.5606328707        0.0000000000        1.9870898556
Cu            8.4485143286        4.2242543590        0.5243805887
Cu           10.5606366463        6.3363834744        0.5243817045
Pd            8.4485112030        6.3363861896        1.9870930216
Pd           10.5606412869        4.2242543590        1.9870957492
Cu            0.0000000000        0.0000000000        3.5168364480
Cu            2.1121230342        2.1121235158        3.5168403379
Pd            0.0000000000        2.1121229029        5.0177650908
Pd            2.1121215679        0.0000000000        5.0177608820
Cu            0.0000000000        4.2242543590        3.5168442551
Cu            2.1121230342        6.3363868432        3.5168403379
Pd            0.0000000000        6.3363874561        5.0177650908
Pd            2.1121293606        4.2242543590        5.0177589770
Cu            4.2242548061        0.0000000000        3.5168440589
Cu            6.3363823590        2.1121265029        3.5168386795
Pd            4.2242507720        2.1121290754        5.0177557241
Pd            6.3363823590        0.0000000000        5.0177594514
Cu            4.2242587577        4.2242543590        3.5168335376
Cu            6.3363823590        6.3363838561        3.5168386795
Pd            4.2242507720        6.3363812836        5.0177557241
Pd            6.3363823590        4.2242543590        5.0177543479
Cu            8.4485082709        0.0000000000        3.5168440589
Cu           10.5606416838        2.1121235158        3.5168403379
Pd            8.4485123050        2.1121290754        5.0177557241
Pd           10.5606381381        0.0000000000        5.0177608820
Cu            8.4485043193        4.2242543590        3.5168335376
Cu           10.5606416838        6.3363868432        3.5168403379
Pd            8.4485123050        6.3363812836        5.0177557241
Pd           10.5606353574        4.2242543590        5.0177589770

     Writing output data file /users/aafshar4/scratch/CuPd_rlx_1st_BBEF-vdW.save/
     NEW-OLD atomic charge density approx. for the potential

[...]

     Self-consistent Calculation

[...]

     Threshold (ethr) on eigenvalues was too large:
     Diagonalizing with lowered threshold

     Davidson diagonalization with overlap
     ethr =  3.34E-13,  avg # of iterations =  4.2

[...]

     total energy              =  -14458.51604171 Ry
     estimated scf accuracy    <          1.7E-12 Ry

     iteration # 11     ecut=    60.00 Ry     beta= 0.30
     Davidson diagonalization with overlap
     ethr =  1.00E-13,  avg # of iterations =  1.0

[...]

     End of self-consistent calculation

[...]

          k = 0.2500-0.7500 0.0000 (141742 PWs)   bands (ev):

[...]

          k =-0.5000-0.7500 0.0000 (141740 PWs)   bands (ev):

  -111.0200-111.0198-111.0195-111.0192-111.0191-111.0191-111.0191-111.0190
  -111.0189-111.0186-111.0184-111.0181-110.6141-110.6139-110.6137-110.6135
  -110.6134-110.6134-110.6133-110.6133-110.6132-110.6130-110.6128-110.6126
   -68.4204 -68.4201 -68.4199 -68.4196 -68.4195 -68.4194 -68.4194 -68.4192
   -68.4191 -68.4188 -68.4186 -68.4184 -68.4183 -68.4183 -68.4183 -68.4182
   -68.4178 -68.4178 -68.4172 -68.4171 -68.4151 -68.4151 -68.4150 -68.4150
   -68.4137 -68.4136 -68.4136 -68.4135 -68.4115 -68.4114 -68.4109 -68.4108
   -68.4104 -68.4104 -68.4103 -68.4102 -68.0535 -68.0535 -68.0534 -68.0534
   -68.0529 -68.0528 -68.0524 -68.0524 -68.0503 -68.0502 -68.0502 -68.0501
   -68.0488 -68.0488 -68.0487 -68.0487 -68.0466 -68.0466 -68.0461 -68.0461
   -68.0456 -68.0456 -68.0455 -68.0454 -67.9808 -67.9806 -67.9804 -67.9803
   -67.9802 -67.9800 -67.9800 -67.9798 -67.9797 -67.9796 -67.9793 -67.9792
   -49.0068 -49.0067 -49.0067 -49.0067 -48.9998 -48.9998 -48.9992 -48.9992
   -48.9725 -48.9725 -48.9725 -48.9725 -48.9636 -48.9634 -48.9629 -48.9627
   -48.9587 -48.9580 -48.9580 -48.9573 -48.9573 -48.9573 -48.9573 -48.9573
   -48.9537 -48.9535 -48.9530 -48.9528 -48.9313 -48.9313 -48.9306 -48.9306
   -48.9229 -48.9229 -48.9229 -48.9228 -48.4444 -48.4443 -48.4443 -48.4443
   -48.4373 -48.4373 -48.4368 -48.4368 -48.4105 -48.4105 -48.4105 -48.4105
   -48.3952 -48.3952 -48.3952 -48.3952 -48.3694 -48.3694 -48.3689 -48.3689
   -48.3612 -48.3612 -48.3612 -48.3611 -48.2707 -48.2706 -48.2702 -48.2701
   -48.2660 -48.2655 -48.2655 -48.2650 -48.2611 -48.2610 -48.2606 -48.2605
    -5.4262  -5.4260  -5.4254  -5.4252  -4.0530  -4.0528  -4.0525  -4.0523
    -3.7757  -3.7755  -3.7752  -3.7750  -3.6839  -3.6837  -3.6833  -3.6832
    -3.4933  -3.4931  -3.4931  -3.4930  -3.2144  -3.2143  -3.2143  -3.2143
    -3.1467  -3.1466  -3.1462  -3.1461  -2.9025  -2.9024  -2.9021  -2.9020
    -2.8705  -2.8704  -2.8703  -2.8702  -2.7946  -2.7944  -2.7940  -2.7938
    -2.7430  -2.7430  -2.7429  -2.7429  -2.6191  -2.6191  -2.6189  -2.6189
    -2.5916  -2.5916  -2.5913  -2.5912  -2.4026  -2.4024  -2.4024  -2.4022
    -2.3947  -2.3945  -2.3945  -2.3944  -2.3196  -2.3195  -2.3194  -2.3193
    -2.2732  -2.2730  -2.2727  -2.2725  -2.1830  -2.1827  -2.1827  -2.1824
    -2.1160  -2.1160  -2.1159  -2.1159  -1.9980  -1.9980  -1.9979  -1.9979
    -1.9064  -1.9064  -1.9061  -1.9061  -1.8624  -1.8624  -1.8623  -1.8623
    -1.8525  -1.8524  -1.8522  -1.8521  -1.7562  -1.7561  -1.7558  -1.7557
    -1.5729  -1.5729  -1.5729  -1.5728  -1.4378  -1.4378  -1.4377  -1.4376
    -1.4054  -1.4054  -1.4052  -1.4051  -1.3149  -1.3149  -1.3149  -1.3148
    -1.1839  -1.1839  -1.1837  -1.1836  -1.1531  -1.1531  -1.1527  -1.1527
    -1.1337  -1.1336  -1.1336  -1.1335  -1.0711  -1.0710  -1.0708  -1.0707
    -1.0638  -1.0638  -1.0637  -1.0637  -1.0023  -1.0023  -1.0022  -1.0022
    -0.9374  -0.9373  -0.9372  -0.9371  -0.8440  -0.8440  -0.8440  -0.8439
    -0.7300  -0.7299  -0.7299  -0.7299  -0.6793  -0.6792  -0.6792  -0.6792
    -0.6435  -0.6435  -0.6434  -0.6434  -0.6127  -0.6126  -0.6126  -0.6125
    -0.5984  -0.5983  -0.5982  -0.5981  -0.5641  -0.5641  -0.5641  -0.5640
    -0.5260  -0.5260  -0.5259  -0.5259  -0.5048  -0.5048  -0.5048  -0.5048
    -0.4146  -0.4146  -0.4145  -0.4145  -0.3957  -0.3957  -0.3955  -0.3954
    -0.3620  -0.3620  -0.3620  -0.3619  -0.2982  -0.2981  -0.2980  -0.2979
    -0.2824  -0.2823  -0.2821  -0.2820  -0.2320  -0.2319  -0.2318  -0.2318
    -0.2026  -0.2025  -0.2025  -0.2024  -0.1700  -0.1700  -0.1698  -0.1698
    -0.1416  -0.1415  -0.1414  -0.1414  -0.1248  -0.1247  -0.1246  -0.1245
    -0.0519  -0.0519  -0.0518  -0.0518   0.0411   0.0411   0.0415   0.0415
     0.1007   0.1008   0.1010   0.1010   0.1379   0.1381   0.1381   0.1382
     0.2687   0.2687   0.2688   0.2688   0.3421   0.3422   0.3424   0.3425
     0.3537   0.3538   0.3538   0.3539   0.4289   0.4289   0.4289   0.4289
     0.5054   0.5054   0.5057   0.5057   1.0580   1.0581   1.0585   1.0585
     1.3977   1.3978   1.3981   1.3982   1.5619   1.5620   1.5622   1.5623
     3.0226   3.0227   3.0230   3.0231   3.0406   3.0406   3.0411   3.0411
     3.5567   3.5568   3.5569   3.5571   3.6904   3.6906   3.6907   3.6908
     3.7385   3.7386   3.7389   3.7390   4.9479   4.9480   4.9485   4.9485
     4.9916   4.9917   4.9917   4.9918   5.5075   5.5076   5.5077   5.5077
     5.6789   5.6790   5.6790   5.6791   5.8322   5.8322   5.8323   5.8323
     6.0186   6.0186   6.0188   6.0188   6.0570   6.0571   6.0572   6.0572
     6.9884   6.9884   6.9887   6.9887   7.0816   7.0817   7.0817   7.0818
     7.2940   7.2941   7.2942   7.2942   7.3671   7.3672   7.3673   7.3673
     7.3985   7.3986   7.3987   7.3987   7.7807   7.7808   7.7808   7.7809

     the Fermi energy is     0.6160 ev

!    total energy              =  -14458.51604171 Ry
     estimated scf accuracy    <          2.3E-13 Ry
     smearing contrib. (-TS)   =       0.02365883 Ry
     internal energy E=F+TS    =  -14458.53970053 Ry

     The total energy is F=E-TS. E is the sum of the following terms:
     one-electron contribution = -114677.23401016 Ry
     hartree contribution      =   57457.45801228 Ry
     xc contribution           =   -1683.33838158 Ry
     ewald contribution        =   44444.57467893 Ry

     convergence has been achieved in  11 iterations

     negative rho (up, down):  1.880E+00 0.000E+00

     Forces acting on atoms (cartesian axes, Ry/au):

     atom    1 type  1   force =     0.00000000    0.00000000    0.00000204
     atom    2 type  1   force =    -0.00000010   -0.00000002    0.00000232
     atom    3 type  2   force =     0.00000000    0.00000003    0.00000717
     atom    4 type  2   force =     0.00000035    0.00000000    0.00000732
     atom    5 type  1   force =     0.00000000    0.00000000    0.00000207
     atom    6 type  1   force =    -0.00000010    0.00000002    0.00000232
     atom    7 type  2   force =     0.00000000   -0.00000003    0.00000717
     atom    8 type  2   force =     0.00000040    0.00000000    0.00000725
     atom    9 type  1   force =    -0.00000081    0.00000000    0.00000258
     atom   10 type  1   force =     0.00000000    0.00000006    0.00000194
     atom   11 type  2   force =     0.00000019   -0.00000006    0.00000725
     atom   12 type  2   force =     0.00000000    0.00000000    0.00000702
     atom   13 type  1   force =    -0.00000060    0.00000000    0.00000241
     atom   14 type  1   force =     0.00000000   -0.00000006    0.00000194
     atom   15 type  2   force =     0.00000019    0.00000006    0.00000725
     atom   16 type  2   force =     0.00000000    0.00000000    0.00000727
     atom   17 type  1   force =     0.00000081    0.00000000    0.00000258
     atom   18 type  1   force =     0.00000010   -0.00000002    0.00000232
     atom   19 type  2   force =    -0.00000019   -0.00000006    0.00000725
     atom   20 type  2   force =    -0.00000035    0.00000000    0.00000732
     atom   21 type  1   force =     0.00000060    0.00000000    0.00000241
     atom   22 type  1   force =     0.00000010    0.00000002    0.00000232
     atom   23 type  2   force =    -0.00000019    0.00000006    0.00000725
     atom   24 type  2   force =    -0.00000040    0.00000000    0.00000725
     atom   25 type  1   force =     0.00000000    0.00000000   -0.00000054
     atom   26 type  1   force =    -0.00000023   -0.00000004   -0.00000100
     atom   27 type  2   force =     0.00000000    0.00000003   -0.00000919
     atom   28 type  2   force =     0.00000015    0.00000000   -0.00000889
     atom   29 type  1   force =     0.00000000    0.00000000   -0.00000057
     atom   30 type  1   force =    -0.00000023    0.00000004   -0.00000100
     atom   31 type  2   force =     0.00000000   -0.00000003   -0.00000919
     atom   32 type  2   force =     0.00000024    0.00000000   -0.00000881
     atom   33 type  1   force =    -0.00000104    0.00000000   -0.00000124
     atom   34 type  1   force =     0.00000000    0.00000002   -0.00000114
     atom   35 type  2   force =     0.00000014   -0.00000017   -0.00000820
     atom   36 type  2   force =     0.00000000    0.00000000   -0.00000847
     atom   37 type  1   force =    -0.00000099    0.00000000   -0.00000080
     atom   38 type  1   force =     0.00000000   -0.00000002   -0.00000114
     atom   39 type  2   force =     0.00000014    0.00000017   -0.00000820
     atom   40 type  2   force =     0.00000000    0.00000000   -0.00000750
     atom   41 type  1   force =     0.00000104    0.00000000   -0.00000124
     atom   42 type  1   force =     0.00000023   -0.00000004   -0.00000100
     atom   43 type  2   force =    -0.00000014   -0.00000017   -0.00000820
     atom   44 type  2   force =    -0.00000015    0.00000000   -0.00000889
     atom   45 type  1   force =     0.00000099    0.00000000   -0.00000080
     atom   46 type  1   force =     0.00000023    0.00000004   -0.00000100
     atom   47 type  2   force =    -0.00000014    0.00000017   -0.00000820
     atom   48 type  2   force =    -0.00000024    0.00000000   -0.00000881

     Total force =     0.000040     Total SCF correction =     0.000002

     Computing stress (Cartesian axis) and pressure

     negative rho (up, down):  1.880E+00 0.000E+00
          total   stress  (Ry/bohr**3)                   (kbar)     P=       -8.80
  -0.00008819   0.00000000   0.00000000          -12.97        0.00        0.00
   0.00000000  -0.00008963   0.00000000            0.00      -13.19        0.00
   0.00000000   0.00000000  -0.00000172            0.00        0.00       -0.25

     Message from routine bfgs:
     history already reset at previous step: stopping

     bfgs converged in  16 scf cycles and  15 bfgs steps
     (criteria: energy <  1.0E-07 Ry, force <  1.0E-06 Ry/Bohr)

     End of BFGS Geometry Optimization

     Final energy   =  -14458.5160417063 Ry

     File /users/aafshar4/scratch/CuPd_rlx_1st_BBEF-vdW.bfgs deleted, as requested
Begin final coordinates

ATOMIC_POSITIONS (angstrom)
Cu            0.0000000000        0.0000000000        0.5243847781
Cu            2.1121280717        2.1121268846        0.5243817045
Pd            0.0000000000        2.1121257742        1.9870915600
Pd            2.1121268353        0.0000000000        1.9870898556
Cu            0.0000000000        4.2242543590        0.5243813939
Cu            2.1121280717        6.3363834744        0.5243817045
Pd            0.0000000000        6.3363845848        1.9870915600
Pd            2.1121234311        4.2242543590        1.9870957492
Cu            4.2242634327        0.0000000000        0.5243805847
Cu            6.3363823590        2.1121136204        0.5243850547
Pd            4.2242518740        2.1121241694        1.9870930216
Pd            6.3363823590        0.0000000000        1.9871035718
Cu            4.2242487484        4.2242543590        0.5243805887
Cu            6.3363823590        6.3363967386        0.5243850547
Pd            4.2242518740        6.3363861896        1.9870930216
Pd            6.3363823590        4.2242543590        1.9870818880
Cu            8.4484996443        0.0000000000        0.5243805847
Cu           10.5606366463        2.1121268846        0.5243817045
Pd            8.4485112030        2.1121241694        1.9870930216
Pd           10.5606328707        0.0000000000        1.9870898556
Cu            8.4485143286        4.2242543590        0.5243805887
Cu           10.5606366463        6.3363834744        0.5243817045
Pd            8.4485112030        6.3363861896        1.9870930216
Pd           10.5606412869        4.2242543590        1.9870957492
Cu            0.0000000000        0.0000000000        3.5168364480
Cu            2.1121230342        2.1121235158        3.5168403379
Pd            0.0000000000        2.1121229029        5.0177650908
Pd            2.1121215679        0.0000000000        5.0177608820
Cu            0.0000000000        4.2242543590        3.5168442551
Cu            2.1121230342        6.3363868432        3.5168403379
Pd            0.0000000000        6.3363874561        5.0177650908
Pd            2.1121293606        4.2242543590        5.0177589770
Cu            4.2242548061        0.0000000000        3.5168440589
Cu            6.3363823590        2.1121265029        3.5168386795
Pd            4.2242507720        2.1121290754        5.0177557241
Pd            6.3363823590        0.0000000000        5.0177594514
Cu            4.2242587577        4.2242543590        3.5168335376
Cu            6.3363823590        6.3363838561        3.5168386795
Pd            4.2242507720        6.3363812836        5.0177557241
Pd            6.3363823590        4.2242543590        5.0177543479
Cu            8.4485082709        0.0000000000        3.5168440589
Cu           10.5606416838        2.1121235158        3.5168403379
Pd            8.4485123050        2.1121290754        5.0177557241
Pd           10.5606381381        0.0000000000        5.0177608820
Cu            8.4485043193        4.2242543590        3.5168335376
Cu           10.5606416838        6.3363868432        3.5168403379
Pd            8.4485123050        6.3363812836        5.0177557241
Pd           10.5606353574        4.2242543590        5.0177589770
End final coordinates

     Writing output data file /users/aafshar4/scratch/CuPd_rlx_1st_BBEF-vdW.save/

     General routines

     Parallel routines

   This run was terminated on:  11: 9:48  23Apr2021

   JOB DONE.
[1619190589.034588] [node1749:175042:0]          mpool.c:43   UCX  WARN  object 0x2f35040 was not returned to mpool ucp_requests
[1619190589.035099] [node1741:419  :0]          mpool.c:43   UCX  WARN  object 0x2f67d40 was not returned to mpool ucp_requests
[1619190589.035037] [node1749:175043:0]          mpool.c:43   UCX  WARN  object 0x47f6100 was not returned to mpool ucp_requests