     Program PWSCF v.6.6 starts on 22Apr2021 at 20:18:18

     R & G space division:  proc/nbgrp/npool/nimage =      16
     Fft bands division:     nmany     =       1
     Waiting for input...
     Reading input from standard input
Warning: card  &CELL ignored
Warning: card     CELL_DYNAMICS = 'BFGS', ignored
Warning: card     PRESS=0.0, ignored
Warning: card     CELL_DOFREE = '2DXY', ignored
Warning: card / ignored

     Current dimensions of program PWSCF are:
     Max number of different atomic species (ntypx) = 10
     Max number of k-points (npk) =  40000
     Max angular momentum in pseudopotentials (lmaxx) =  3

     File /users/aafshar4/scratch/CuPd_rlx_1st_BBEF-vdW.update deleted, as requested

     File /users/aafshar4/scratch/CuPd_rlx_1st_BBEF-vdW.bfgs deleted, as requested

     IMPORTANT: XC functional enforced from input :
     Exchange-correlation= PBE
                           (   1   4   3   4   0   0   0)
     Any further DFT definition will be discarded
     Please, verify this is what you really want

     Found symmetry operation: I + (  0.1667  0.2500  0.0000)
     This is a supercell, fractional translations are disabled
     Message from routine setup:
     using ibrav=0 with symmetry is DISCOURAGED, use correct ibrav instead

     bravais-lattice index     =            0
     lattice parameter (alat)  =      23.9481  a.u.
     unit-cell volume          =   18062.9546 (a.u.)^3
     number of atoms/cell      =           48
     number of atomic types    =            2
     number of electrons       =       840.00
     number of Kohn-Sham states=          504
     kinetic-energy cutoff     =      60.0000  Ry
     charge density cutoff     =     650.0000  Ry
     convergence threshold     =      1.0E-10
     mixing beta               =       0.3000
     number of iterations used =            8  plain     mixing
     Exchange-correlation= PBE
                           (   1   4   3   4   0   0   0)
     nstep                     =           50

     celldm(1)=  23.948060  celldm(2)=   0.000000  celldm(3)=   0.000000
     celldm(4)=   0.000000  celldm(5)=   0.000000  celldm(6)=   0.000000

     crystal axes: (cart. coord. in units of alat)
               a(1) = (   1.000000   0.000000   0.000000 )
               a(2) = (   0.000000   0.666667   0.000000 )
               a(3) = (   0.000000   0.000000   1.972734 )

     reciprocal axes: (cart. coord. in units 2 pi/alat)
               b(1) = (  1.000000  0.000000  0.000000 )
               b(2) = (  0.000000  1.499998  0.000000 )
               b(3) = (  0.000000  0.000000  0.506911 )

     PseudoPot. # 1 for Cu read from file:
     ./pseudo-gbrv-pbe/cu_pbe_v1.2.uspp.F.UPF
     MD5 check sum: 6e991ff952a84172a2a52a1c1e996048
     Pseudo is Ultrasoft + core correction, Zval = 19.0
     Generated by new atomic code, or converted to UPF format
     Using radial grid of  867 points,  6 beta functions with:
                l(1) =   0
                l(2) =   0
                l(3) =   1
                l(4) =   1
                l(5) =   2
                l(6) =   2
     Q(r) pseudized with  8 coefficients,  rinner =    1.150   1.150   1.150
                                                       1.150   1.150

     PseudoPot. # 2 for Pd read from file:
     ./pseudo-gbrv-pbe/pd_pbe_v1.4.uspp.F.UPF
     MD5 check sum: 2d733d2bc2cbfd217af676df1668a4bc
     Pseudo is Ultrasoft + core correction, Zval = 16.0
     Generated by new atomic code, or converted to UPF format
     Using radial grid of  887 points,  6 beta functions with:
                l(1) =   0
                l(2) =   0
                l(3) =   1
                l(4) =   1
                l(5) =   2
                l(6) =   2
     Q(r) pseudized with  8 coefficients,  rinner =    1.130   1.130   1.130
                                                       1.130   1.130

     atomic species   valence    mass     pseudopotential
        Cu            19.00    63.54600     Cu( 1.00)
        Pd            16.00   106.42000     Pd( 1.00)

      4 Sym. Ops. (no inversion) found

   Cartesian axes

     site n.     atom                  positions (alat units)
         1           Cu  tau(   1) = (   0.0000000   0.0000000   0.0437355  )
         2           Cu  tau(   2) = (   0.1666664   0.1666666   0.0437372  )
         3           Pd  tau(   3) = (   0.0000000   0.1666658   0.1530228  )
         4           Pd  tau(   4) = (   0.1666660   0.0000000   0.1530226  )
         5           Cu  tau(   5) = (   0.0000000   0.3333332   0.0437404  )
         6           Cu  tau(   6) = (   0.1666664   0.5000000   0.0437372  )
         7           Pd  tau(   7) = (   0.0000000   0.5000008   0.1530228  )
         8           Pd  tau(   8) = (   0.1666670   0.3333332   0.1530224  )
         9           Cu  tau(   9) = (   0.3333349   0.0000000   0.0437394  )
        10           Cu  tau(  10) = (   0.4999999   0.1666644   0.0437382  )
        11           Pd  tau(  11) = (   0.3333330   0.1666672   0.1530225  )
        12           Pd  tau(  12) = (   0.4999999   0.0000000   0.1530246  )
        13           Cu  tau(  13) = (   0.3333334   0.3333332   0.0437374  )
        14           Cu  tau(  14) = (   0.4999999   0.5000022   0.0437382  )
        15           Pd  tau(  15) = (   0.3333330   0.4999994   0.1530225  )
        16           Pd  tau(  16) = (   0.4999999   0.3333332   0.1530210  )
        17           Cu  tau(  17) = (   0.6666647   0.0000000   0.0437394  )
        18           Cu  tau(  18) = (   0.8333333   0.1666666   0.0437372  )
        19           Pd  tau(  19) = (   0.6666667   0.1666672   0.1530225  )
        20           Pd  tau(  20) = (   0.8333333   0.0000000   0.1530226  )
        21           Cu  tau(  21) = (   0.6666662   0.3333332   0.0437374  )
        22           Cu  tau(  22) = (   0.8333333   0.5000000   0.0437372  )
        23           Pd  tau(  23) = (   0.6666667   0.4999994   0.1530225  )
        24           Pd  tau(  24) = (   0.8333327   0.3333332   0.1530224  )
        25           Cu  tau(  25) = (   0.0000000   0.0000000   0.2827943  )
        26           Cu  tau(  26) = (   0.1666664   0.1666666   0.2827960  )
        27           Pd  tau(  27) = (   0.0000000   0.1666658   0.3920816  )
        28           Pd  tau(  28) = (   0.1666660   0.0000000   0.3920814  )
        29           Cu  tau(  29) = (   0.0000000   0.3333332   0.2827992  )
        30           Cu  tau(  30) = (   0.1666664   0.5000000   0.2827960  )
        31           Pd  tau(  31) = (   0.0000000   0.5000008   0.3920816  )
        32           Pd  tau(  32) = (   0.1666670   0.3333332   0.3920812  )
        33           Cu  tau(  33) = (   0.3333349   0.0000000   0.2827982  )
        34           Cu  tau(  34) = (   0.4999999   0.1666644   0.2827970  )
        35           Pd  tau(  35) = (   0.3333330   0.1666672   0.3920813  )
        36           Pd  tau(  36) = (   0.4999999   0.0000000   0.3920834  )
        37           Cu  tau(  37) = (   0.3333334   0.3333332   0.2827962  )
        38           Cu  tau(  38) = (   0.4999999   0.5000022   0.2827970  )
        39           Pd  tau(  39) = (   0.3333330   0.4999994   0.3920813  )
        40           Pd  tau(  40) = (   0.4999999   0.3333332   0.3920798  )
        41           Cu  tau(  41) = (   0.6666647   0.0000000   0.2827982  )
        42           Cu  tau(  42) = (   0.8333333   0.1666666   0.2827960  )
        43           Pd  tau(  43) = (   0.6666667   0.1666672   0.3920813  )
        44           Pd  tau(  44) = (   0.8333333   0.0000000   0.3920814  )
        45           Cu  tau(  45) = (   0.6666662   0.3333332   0.2827962  )
        46           Cu  tau(  46) = (   0.8333333   0.5000000   0.2827960  )
        47           Pd  tau(  47) = (   0.6666667   0.4999994   0.3920813  )
        48           Pd  tau(  48) = (   0.8333327   0.3333332   0.3920812  )

     number of k points=     9  Methfessel-Paxton smearing, width (Ry)=  0.0200
                       cart. coord. in units 2pi/alat
        k(    1) = (   0.0000000   0.0000000   0.0000000), wk =   0.1250000
        k(    2) = (   0.0000000   0.3749996   0.0000000), wk =   0.2500000
        k(    3) = (   0.0000000  -0.7499991   0.0000000), wk =   0.1250000
        k(    4) = (   0.2500000   0.0000000   0.0000000), wk =   0.2500000
        k(    5) = (   0.2500000   0.3749996   0.0000000), wk =   0.5000000
        k(    6) = (   0.2500000  -0.7499991   0.0000000), wk =   0.2500000
        k(    7) = (  -0.5000000   0.0000000   0.0000000), wk =   0.1250000
        k(    8) = (  -0.5000000   0.3749996   0.0000000), wk =   0.2500000
        k(    9) = (  -0.5000000  -0.7499991   0.0000000), wk =   0.1250000

     Initial potential from superposition of free atoms

     starting charge  803.99979, renormalised to  840.00000

     negative rho (up, down):  1.908E+00 0.000E+00
     Starting wfcs are  600 randomized atomic wfcs

     Self-consistent Calculation

     iteration #  1     ecut=    60.00 Ry     beta= 0.30
     Davidson diagonalization with overlap
     ethr =  1.00E-02,  avg # of iterations =  9.9

     negative rho (up, down):  1.843E+00 0.000E+00

     total energy              =  -13695.63088767 Ry
     estimated scf accuracy    <    1645.22571523 Ry

[...]

     iteration # 20     ecut=    60.00 Ry     beta= 0.30
     Davidson diagonalization with overlap
     c_bands:  1 eigenvalues not converged
     c_bands:  3 eigenvalues not converged
     ethr =  6.80E-05,  avg # of iterations = 12.7

[...]

     End of self-consistent calculation

          k = 0.0000 0.0000 0.0000 (141809 PWs)   bands (ev):

  -111.0746-111.0743-111.0741-111.0737-111.0736-111.0736-111.0736-111.0736
  -111.0735-111.0731-111.0729-111.0727-110.6862-110.6860-110.6858-110.6855
  -110.6854-110.6854-110.6854-110.6854-110.6853-110.6850-110.6848-110.6846
   -68.4758 -68.4754 -68.4753 -68.4752 -68.4752 -68.4745 -68.4739 -68.4737
   -68.4726 -68.4724 -68.4719 -68.4719 -68.4709 -68.4707 -68.4706 -68.4706
   -68.4705 -68.4701 -68.4700 -68.4700 -68.4699 -68.4699 -68.4699 -68.4699
   -68.4698 -68.4693 -68.4691 -68.4688 -68.4688 -68.4687 -68.4681 -68.4674
   -68.4673 -68.4672 -68.4672 -68.4667 -68.1314 -68.1312 -68.1312 -68.1311
   -68.1311 -68.1308 -68.1295 -68.1294 -68.1289 -68.1288 -68.1276 -68.1276
   -68.1269 -68.1269 -68.1257 -68.1256 -68.1251 -68.1250 -68.1237 -68.1234
   -68.1234 -68.1233 -68.1233 -68.1231 -68.0397 -68.0395 -68.0393 -68.0389
   -68.0389 -68.0388 -68.0388 -68.0388 -68.0387 -68.0383 -68.0382 -68.0379
   -49.0249 -49.0249 -49.0247 -49.0247 -49.0237 -49.0211 -49.0036 -49.0035
   -49.0018 -49.0017 -48.9844 -48.9844 -48.9807 -48.9807 -48.9792 -48.9750
   -48.9749 -48.9709 -48.9708 -48.9706 -48.9706 -48.9705 -48.9704 -48.9668
   -48.9667 -48.9632 -48.9630 -48.9630 -48.9614 -48.9613 -48.9428 -48.9410
   -48.9410 -48.9408 -48.9408 -48.9402 -48.5551 -48.5551 -48.5549 -48.5549
   -48.5533 -48.5522 -48.5340 -48.5339 -48.5320 -48.5319 -48.5129 -48.5129
   -48.5128 -48.5128 -48.4935 -48.4934 -48.4915 -48.4914 -48.4723 -48.4713
   -48.4713 -48.4712 -48.4711 -48.4711 -48.3687 -48.3646 -48.3645 -48.3607
[...]
Cu            4.2242718061        0.0000000000        3.5672381358
Cu            6.3363823590        2.1121025090        3.5672239383
Pd            4.2242506629        2.1121341117        4.9789171130
Pd            6.3363823590        0.0000000000        4.9789452219
Cu            4.2242557343        4.2242543590        3.5672135596
Cu            6.3363823590        6.3364078500        3.5672239383
Pd            4.2242506629        6.3363762473        4.9789171130
Pd            6.3363823590        4.2242543590        4.9788973241
Cu            8.4484912709        0.0000000000        3.5672381358
Cu           10.5606393481        2.1121268281        3.5672140997
Pd            8.4485124141        2.1121341117        4.9789171130
Pd           10.5606394780        0.0000000000        4.9789161818
Cu            8.4485073427        4.2242543590        3.5672135596
Cu           10.5606393481        6.3363835309        3.5672140997
Pd            8.4485124141        6.3363762473        4.9789171130
Pd           10.5606314230        4.2242543590        4.9789153513

     Writing output data file /users/aafshar4/scratch/CuPd_rlx_1st_BBEF-vdW.save/
     NEW-OLD atomic charge density approx. for the potential

[...]

     energy   old            =  -14458.4642509084 Ry
     energy   new            =  -14458.4863029178 Ry

     CASE: energy  _new < energy  _old

[...]

     Threshold (ethr) on eigenvalues was too large:
     Diagonalizing with lowered threshold

     Davidson diagonalization with overlap
     ethr =  6.79E-09,  avg # of iterations =  4.0

[...]

     WARNING: bfgs curvature condition failed, Theta= 0.943
     new trust radius        =       0.0014687113 bohr
     new conv_thr            =            1.0E-10 Ry

[...]

     iteration #  2     ecut=    60.00 Ry     beta= 0.30
     Davidson diagonalization with overlap
     c_bands:  1 eigenvalues not converged
     ethr =  3.93E-08,  avg # of iterations =  4.7

[...]

     End of self-consistent calculation

[...]

          k = 0.2500-0.7500 0.0000 (141742 PWs)   bands (ev):

[...]

          k =-0.5000-0.7500 0.0000 (141740 PWs)   bands (ev):

  -111.0200-111.0197-111.0195-111.0192-111.0191-111.0190-111.0190-111.0189
  -111.0189-111.0185-111.0183-111.0181-110.6143-110.6141-110.6139-110.6137
  -110.6136-110.6135-110.6135-110.6135-110.6134-110.6132-110.6130-110.6128
   -68.4203 -68.4201 -68.4198 -68.4195 -68.4194 -68.4193 -68.4193 -68.4191
   -68.4190 -68.4188 -68.4185 -68.4183 -68.4183 -68.4183 -68.4182 -68.4182
   -68.4177 -68.4177 -68.4171 -68.4171 -68.4150 -68.4150 -68.4149 -68.4149
   -68.4136 -68.4136 -68.4135 -68.4135 -68.4114 -68.4114 -68.4108 -68.4108
   -68.4103 -68.4103 -68.4103 -68.4102 -68.0537 -68.0537 -68.0536 -68.0536
   -68.0531 -68.0530 -68.0526 -68.0525 -68.0505 -68.0504 -68.0504 -68.0503
   -68.0490 -68.0490 -68.0489 -68.0489 -68.0468 -68.0468 -68.0463 -68.0463
   -68.0458 -68.0458 -68.0457 -68.0456 -67.9810 -67.9808 -67.9806 -67.9804
   -67.9803 -67.9802 -67.9802 -67.9800 -67.9799 -67.9798 -67.9795 -67.9793
   -49.0069 -49.0069 -49.0069 -49.0069 -49.0000 -49.0000 -48.9994 -48.9993
   -48.9727 -48.9727 -48.9727 -48.9727 -48.9637 -48.9635 -48.9631 -48.9629
   -48.9588 -48.9581 -48.9581 -48.9575 -48.9575 -48.9575 -48.9575 -48.9575
   -48.9538 -48.9536 -48.9532 -48.9530 -48.9315 -48.9314 -48.9308 -48.9308
   -48.9231 -48.9231 -48.9230 -48.9230 -48.4443 -48.4443 -48.4443 -48.4443
   -48.4372 -48.4372 -48.4368 -48.4367 -48.4104 -48.4104 -48.4104 -48.4104
   -48.3952 -48.3952 -48.3951 -48.3951 -48.3693 -48.3693 -48.3689 -48.3689
   -48.3611 -48.3611 -48.3611 -48.3611 -48.2706 -48.2705 -48.2702 -48.2700
   -48.2659 -48.2654 -48.2654 -48.2649 -48.2610 -48.2609 -48.2605 -48.2604
    -5.4262  -5.4260  -5.4254  -5.4252  -4.0530  -4.0528  -4.0524  -4.0522
    -3.7757  -3.7756  -3.7752  -3.7751  -3.6840  -3.6839  -3.6835  -3.6833
    -3.4934  -3.4933  -3.4932  -3.4931  -3.2144  -3.2144  -3.2144  -3.2143
    -3.1469  -3.1468  -3.1464  -3.1462  -2.9026  -2.9025  -2.9022  -2.9021
    -2.8707  -2.8707  -2.8705  -2.8705  -2.7944  -2.7942  -2.7938  -2.7937
    -2.7429  -2.7428  -2.7427  -2.7427  -2.6192  -2.6192  -2.6190  -2.6190
    -2.5915  -2.5915  -2.5912  -2.5911  -2.4026  -2.4024  -2.4023  -2.4021
    -2.3945  -2.3943  -2.3943  -2.3941  -2.3196  -2.3195  -2.3194  -2.3194
    -2.2732  -2.2730  -2.2727  -2.2725  -2.1830  -2.1828  -2.1827  -2.1825
    -2.1161  -2.1160  -2.1160  -2.1160  -1.9980  -1.9980  -1.9979  -1.9979
    -1.9065  -1.9065  -1.9062  -1.9061  -1.8624  -1.8624  -1.8623  -1.8623
    -1.8526  -1.8525  -1.8523  -1.8522  -1.7562  -1.7561  -1.7558  -1.7558
    -1.5729  -1.5729  -1.5729  -1.5728  -1.4379  -1.4379  -1.4377  -1.4377
    -1.4056  -1.4055  -1.4053  -1.4053  -1.3150  -1.3149  -1.3149  -1.3148
    -1.1839  -1.1839  -1.1837  -1.1836  -1.1533  -1.1533  -1.1529  -1.1529
    -1.1338  -1.1337  -1.1337  -1.1336  -1.0712  -1.0710  -1.0708  -1.0707
    -1.0639  -1.0639  -1.0638  -1.0638  -1.0025  -1.0024  -1.0023  -1.0023
    -0.9374  -0.9373  -0.9373  -0.9372  -0.8442  -0.8442  -0.8441  -0.8441
    -0.7300  -0.7300  -0.7300  -0.7300  -0.6793  -0.6793  -0.6793  -0.6793
    -0.6435  -0.6434  -0.6433  -0.6433  -0.6127  -0.6126  -0.6126  -0.6125
    -0.5984  -0.5983  -0.5982  -0.5981  -0.5641  -0.5640  -0.5640  -0.5639
    -0.5260  -0.5260  -0.5259  -0.5259  -0.5049  -0.5049  -0.5048  -0.5048
    -0.4146  -0.4146  -0.4145  -0.4145  -0.3959  -0.3958  -0.3956  -0.3956
    -0.3621  -0.3621  -0.3620  -0.3620  -0.2983  -0.2982  -0.2981  -0.2980
    -0.2824  -0.2823  -0.2821  -0.2819  -0.2320  -0.2320  -0.2319  -0.2319
    -0.2025  -0.2025  -0.2024  -0.2024  -0.1701  -0.1700  -0.1699  -0.1698
    -0.1416  -0.1416  -0.1415  -0.1415  -0.1249  -0.1248  -0.1247  -0.1245
    -0.0520  -0.0520  -0.0519  -0.0519   0.0411   0.0411   0.0414   0.0414
     0.1006   0.1006   0.1009   0.1009   0.1379   0.1380   0.1380   0.1382
     0.2687   0.2687   0.2687   0.2688   0.3420   0.3421   0.3423   0.3424
     0.3537   0.3537   0.3537   0.3538   0.4288   0.4288   0.4288   0.4288
     0.5053   0.5054   0.5056   0.5057   1.0580   1.0580   1.0585   1.0585
     1.3976   1.3977   1.3980   1.3981   1.5618   1.5619   1.5621   1.5622
     3.0225   3.0226   3.0229   3.0230   3.0406   3.0406   3.0410   3.0411
     3.5567   3.5568   3.5569   3.5571   3.6903   3.6905   3.6906   3.6907
     3.7386   3.7387   3.7389   3.7390   4.9480   4.9480   4.9485   4.9486
     4.9918   4.9918   4.9918   4.9919   5.5074   5.5075   5.5076   5.5077
     5.6789   5.6790   5.6790   5.6791   5.8321   5.8321   5.8322   5.8322
     6.0185   6.0186   6.0187   6.0188   6.0570   6.0571   6.0572   6.0572
     6.9883   6.9883   6.9886   6.9886   7.0815   7.0815   7.0816   7.0816
     7.2941   7.2941   7.2942   7.2943   7.3670   7.3671   7.3672   7.3672
     7.3986   7.3986   7.3987   7.3987   7.7807   7.7808   7.7809   7.7809

     the Fermi energy is     0.6159 ev

!    total energy              =  -14458.51604151 Ry
     estimated scf accuracy    <          1.7E-12 Ry
     smearing contrib. (-TS)   =       0.02365964 Ry
     internal energy E=F+TS    =  -14458.53970115 Ry

     The total energy is F=E-TS. E is the sum of the following terms:
     one-electron contribution = -114676.94743366 Ry
     hartree contribution      =   57457.31295865 Ry
     xc contribution           =   -1683.33818838 Ry
     ewald contribution        =   44444.43296223 Ry

     convergence has been achieved in  21 iterations

[...]

     Forces acting on atoms (cartesian axes, Ry/au):

     atom    1 type  1   force =     0.00000000    0.00000000   -0.00003122
     atom    2 type  1   force =     0.00000018   -0.00000008   -0.00003199
     atom    3 type  2   force =     0.00000000    0.00000007    0.00005489
     atom    4 type  2   force =     0.00000078    0.00000000    0.00005501
     atom    5 type  1   force =     0.00000000    0.00000000   -0.00003140
     atom    6 type  1   force =     0.00000018    0.00000008   -0.00003199
     atom    7 type  2   force =     0.00000000   -0.00000007    0.00005489
     atom    8 type  2   force =     0.00000070    0.00000000    0.00005483
     atom    9 type  1   force =    -0.00000032    0.00000000   -0.00003078
     atom   10 type  1   force =     0.00000000   -0.00000006   -0.00003151
     atom   11 type  2   force =     0.00000056   -0.00000007    0.00005462
     atom   12 type  2   force =     0.00000000    0.00000000    0.00005411
     atom   13 type  1   force =    -0.00000011    0.00000000   -0.00003105
     atom   14 type  1   force =     0.00000000    0.00000006   -0.00003151
     atom   15 type  2   force =     0.00000056    0.00000007    0.00005462
     atom   16 type  2   force =     0.00000000    0.00000000    0.00005460
     atom   17 type  1   force =     0.00000032    0.00000000   -0.00003078
     atom   18 type  1   force =    -0.00000018   -0.00000008   -0.00003199
     atom   19 type  2   force =    -0.00000056   -0.00000007    0.00005462
     atom   20 type  2   force =    -0.00000078    0.00000000    0.00005501
     atom   21 type  1   force =     0.00000011    0.00000000   -0.00003105
     atom   22 type  1   force =    -0.00000018    0.00000008   -0.00003199
     atom   23 type  2   force =    -0.00000056    0.00000007    0.00005462
     atom   24 type  2   force =    -0.00000070    0.00000000    0.00005483
     atom   25 type  1   force =     0.00000000    0.00000000    0.00001867
     atom   26 type  1   force =    -0.00000021   -0.00000023    0.00001961
     atom   27 type  2   force =     0.00000000    0.00000013   -0.00004305
     atom   28 type  2   force =     0.00000020    0.00000000   -0.00004260
     atom   29 type  1   force =     0.00000000    0.00000000    0.00001881
     atom   30 type  1   force =    -0.00000021    0.00000023    0.00001961
     atom   31 type  2   force =     0.00000000   -0.00000013   -0.00004305
     atom   32 type  2   force =     0.00000037    0.00000000   -0.00004246
     atom   33 type  1   force =    -0.00000219    0.00000000    0.00001838
     atom   34 type  1   force =     0.00000000    0.00000021    0.00001753
     atom   35 type  2   force =     0.00000025   -0.00000003   -0.00004160
     atom   36 type  2   force =     0.00000000    0.00000000   -0.00004179
     atom   37 type  1   force =    -0.00000172    0.00000000    0.00001909
     atom   38 type  1   force =     0.00000000   -0.00000021    0.00001753
     atom   39 type  2   force =     0.00000025    0.00000003   -0.00004160
     atom   40 type  2   force =     0.00000000    0.00000000   -0.00004090
     atom   41 type  1   force =     0.00000219    0.00000000    0.00001838
     atom   42 type  1   force =     0.00000021   -0.00000023    0.00001961
     atom   43 type  2   force =    -0.00000025   -0.00000003   -0.00004160
     atom   44 type  2   force =    -0.00000020    0.00000000   -0.00004260
     atom   45 type  1   force =     0.00000172    0.00000000    0.00001909
     atom   46 type  1   force =     0.00000021    0.00000023    0.00001961
     atom   47 type  2   force =    -0.00000025    0.00000003   -0.00004160
     atom   48 type  2   force =    -0.00000037    0.00000000   -0.00004246

     Total force =     0.000271     Total SCF correction =     0.000007

     Computing stress (Cartesian axis) and pressure

     negative rho (up, down):  1.880E+00 0.000E+00
          total   stress  (Ry/bohr**3)                   (kbar)     P=       -8.81
  -0.00008820   0.00000000   0.00000000          -12.98        0.00        0.00
   0.00000000  -0.00008965   0.00000000            0.00      -13.19        0.00
   0.00000000   0.00000000  -0.00000175            0.00        0.00       -0.26

     number of scf cycles    =  13
     number of bfgs steps    =  12

     energy   old            =  -14458.5160383411 Ry
     energy   new            =  -14458.5160415120 Ry

     CASE: energy  _new < energy  _old

     new trust radius        =       0.0002241053 bohr
     new conv_thr            =            3.2E-11 Ry

ATOMIC_POSITIONS (angstrom)
Cu            0.0000000000        0.0000000000        0.5243854110
Cu            2.1121286143        2.1121268388        0.5243827978
Pd            0.0000000000        2.1121256984        1.9870807829
Pd            2.1121264261        0.0000000000        1.9870790062
Cu            0.0000000000        4.2242543590        0.5243822180
Cu            2.1121286143        6.3363835202        0.5243827978
Pd            0.0000000000        6.3363846606        1.9870807829
Pd            2.1121230182        4.2242543590        1.9870850769
Cu            4.2242639943        0.0000000000        0.5243817855
Cu            6.3363823590        2.1121132854        0.5243865592
Pd            4.2242514384        2.1121242044        1.9870823245
Pd            6.3363823590        0.0000000000        1.9870931165
Cu            4.2242488824        4.2242543590        0.5243817595
Cu            6.3363823590        6.3363970736        0.5243865592
Pd            4.2242514384        6.3363861546        1.9870823245
Pd            6.3363823590        4.2242543590        1.9870711140
Cu            8.4484990827        0.0000000000        0.5243817855
Cu           10.5606361037        2.1121268388        0.5243827978
Pd            8.4485116386        2.1121242044        1.9870823245
Pd           10.5606332799        0.0000000000        1.9870790062
Cu            8.4485141946        4.2242543590        0.5243817595
Cu           10.5606361037        6.3363835202        0.5243827978
Pd            8.4485116386        6.3363861546        1.9870823245
Pd           10.5606416998        4.2242543590        1.9870850769
Cu            0.0000000000        0.0000000000        3.5168345834
Cu            2.1121245065        2.1121236741        3.5168395355
Pd            0.0000000000        2.1121228867        5.0177769098
Pd            2.1121215117        0.0000000000        5.0177721753
Cu            0.0000000000        4.2242543590        3.5168426997
Cu            2.1121245065        6.3363866849        3.5168395355
Pd            0.0000000000        6.3363874723        5.0177769098
Pd            2.1121290976        4.2242543590        5.0177699910
Cu            4.2242556044        0.0000000000        3.5168431711
Cu            6.3363823590        2.1121257733        3.5168371724
Pd            4.2242504093        2.1121291741        5.0177659631
Pd            6.3363823590        0.0000000000        5.0177699844
Cu            4.2242589683        4.2242543590        3.5168320982
Cu            6.3363823590        6.3363845857        3.5168371724
Pd            4.2242504093        6.3363811849        5.0177659631
Pd            6.3363823590        4.2242543590        5.0177639374
Cu            8.4485074726        0.0000000000        3.5168431711
Cu           10.5606402115        2.1121236741        3.5168395355
Pd            8.4485126677        2.1121291741        5.0177659631
Pd           10.5606381943        0.0000000000        5.0177721753
Cu            8.4485041087        4.2242543590        3.5168320982
Cu           10.5606402115        6.3363866849        3.5168395355
Pd            8.4485126677        6.3363811849        5.0177659631
Pd           10.5606356204        4.2242543590        5.0177699910

     Writing output data file /users/aafshar4/scratch/CuPd_rlx_1st_BBEF-vdW.save/
     NEW-OLD atomic charge density approx. for the potential

[...]

     Self-consistent Calculation

     iteration #  1     ecut=    60.00 Ry     beta= 0.30
     Davidson diagonalization with overlap
     ethr =  1.00E-06,  avg # of iterations =  2.0

     Threshold (ethr) on eigenvalues was too large:
     Diagonalizing with lowered threshold

     Davidson diagonalization with overlap
     ethr =  5.22E-10,  avg # of iterations =  4.9

     negative rho (up, down):  1.880E+00 0.000E+00

     total energy              =  -14458.51603932 Ry
     estimated scf accuracy    <       0.00000542 Ry

     iteration #  2     ecut=    60.00 Ry     beta= 0.30
     Davidson diagonalization with overlap

     max_seconds     =   40000.00
     Calculation stopped in k-point loop, point #     4
     Calculation stopped in scf loop at iteration #     1

     Writing output data file /users/aafshar4/scratch/CuPd_rlx_1st_BBEF-vdW.save/

     General routines

     Parallel routines

   This run was terminated on:   7:25: 1  23Apr2021

   JOB DONE.
[1619177101.251556] [node1836:193417:0]          mpool.c:43   UCX  WARN  object 0x45757c0 was not returned to mpool ucp_requests
[1619177101.249627] [node1857:271456:0]          mpool.c:43   UCX  WARN  object 0x47a96c0 was not returned to mpool ucp_requests
[1619177101.252050] [node1857:271457:0]          mpool.c:43   UCX  WARN  object 0x3256480 was not returned to mpool ucp_requests